*Heading
** Job name: simple_rat_1000 Model name: simple_rat_1000
** Generated by: Abaqus/CAE 2021
*Preprint, echo=NO, model=NO, history=NO, contact=NO
**
** PARTS
**
*Part, name=Part-1
*End Part
**  
*Part, name=Part-2
*End Part
**  
**
** ASSEMBLY
**
*Assembly, name=Assembly
**  
*Instance, name=Part-1-1, part=Part-1
*Node
      1,           0.,           1.,           7.
      2,           0.,           1.,           0.
      3,           0.,           2.,           0.
      4,           0.,           2.,           7.
      5, -0.707106769,  0.707106769,           7.
      6,          -1.,           0.,           7.
      7, -0.707106769, -0.707106769,           7.
      8,           0.,          -1.,           7.
      9,  0.707106769, -0.707106769,           7.
     10,           1.,           0.,           7.
     11,  0.707106769,  0.707106769,           7.
     12, -0.707106769,  0.707106769,           0.
     13,          -1.,           0.,           0.
     14, -0.707106769, -0.707106769,           0.
     15,           0.,          -1.,           0.
     16,  0.707106769, -0.707106769,           0.
     17,           1.,           0.,           0.
     18,  0.707106769,  0.707106769,           0.
     19,  -0.92944634,   1.77091205,           0.
     20,  -1.64596772,    1.1361295,           0.
     21,  -1.98541772,  0.241073355,           0.
     22,  -1.87003243,   -0.7092098,           0.
     23,  -1.32624531,  -1.49702156,           0.
     24, -0.478631318,  -1.94188368,           0.
     25,  0.478631318,  -1.94188368,           0.
     26,   1.32624531,  -1.49702156,           0.
     27,   1.87003243,   -0.7092098,           0.
     28,   1.98541772,  0.241073355,           0.
     29,   1.64596772,    1.1361295,           0.
     30,   0.92944634,   1.77091205,           0.
     31,   0.92944634,   1.77091205,           7.
     32,   1.64596772,    1.1361295,           7.
     33,   1.98541772,  0.241073355,           7.
     34,   1.87003243,   -0.7092098,           7.
     35,   1.32624531,  -1.49702156,           7.
     36,  0.478631318,  -1.94188368,           7.
     37, -0.478631318,  -1.94188368,           7.
     38,  -1.32624531,  -1.49702156,           7.
     39,  -1.87003243,   -0.7092098,           7.
     40,  -1.98541772,  0.241073355,           7.
     41,  -1.64596772,    1.1361295,           7.
     42,  -0.92944634,   1.77091205,           7.
     43, -0.707106769,  0.707106769,   6.22222233
     44,          -1.,           0.,   6.22222233
     45, -0.707106769, -0.707106769,   6.22222233
     46,           0.,          -1.,   6.22222233
     47,  0.707106769, -0.707106769,   6.22222233
     48,           1.,           0.,   6.22222233
     49,  0.707106769,  0.707106769,   6.22222233
     50,           0.,           1.,   6.22222233
     51, -0.707106769,  0.707106769,   5.44444466
     52,          -1.,           0.,   5.44444466
     53, -0.707106769, -0.707106769,   5.44444466
     54,           0.,          -1.,   5.44444466
     55,  0.707106769, -0.707106769,   5.44444466
     56,           1.,           0.,   5.44444466
     57,  0.707106769,  0.707106769,   5.44444466
     58,           0.,           1.,   5.44444466
     59, -0.707106769,  0.707106769,   4.66666651
     60,          -1.,           0.,   4.66666651
     61, -0.707106769, -0.707106769,   4.66666651
     62,           0.,          -1.,   4.66666651
     63,  0.707106769, -0.707106769,   4.66666651
     64,           1.,           0.,   4.66666651
     65,  0.707106769,  0.707106769,   4.66666651
     66,           0.,           1.,   4.66666651
     67, -0.707106769,  0.707106769,   3.88888884
     68,          -1.,           0.,   3.88888884
     69, -0.707106769, -0.707106769,   3.88888884
     70,           0.,          -1.,   3.88888884
     71,  0.707106769, -0.707106769,   3.88888884
     72,           1.,           0.,   3.88888884
     73,  0.707106769,  0.707106769,   3.88888884
     74,           0.,           1.,   3.88888884
     75, -0.707106769,  0.707106769,   3.11111116
     76,          -1.,           0.,   3.11111116
     77, -0.707106769, -0.707106769,   3.11111116
     78,           0.,          -1.,   3.11111116
     79,  0.707106769, -0.707106769,   3.11111116
     80,           1.,           0.,   3.11111116
     81,  0.707106769,  0.707106769,   3.11111116
     82,           0.,           1.,   3.11111116
     83, -0.707106769,  0.707106769,   2.33333325
     84,          -1.,           0.,   2.33333325
     85, -0.707106769, -0.707106769,   2.33333325
     86,           0.,          -1.,   2.33333325
     87,  0.707106769, -0.707106769,   2.33333325
     88,           1.,           0.,   2.33333325
     89,  0.707106769,  0.707106769,   2.33333325
     90,           0.,           1.,   2.33333325
     91, -0.707106769,  0.707106769,   1.55555558
     92,          -1.,           0.,   1.55555558
     93, -0.707106769, -0.707106769,   1.55555558
     94,           0.,          -1.,   1.55555558
     95,  0.707106769, -0.707106769,   1.55555558
     96,           1.,           0.,   1.55555558
     97,  0.707106769,  0.707106769,   1.55555558
     98,           0.,           1.,   1.55555558
     99, -0.707106769,  0.707106769,  0.777777791
    100,          -1.,           0.,  0.777777791
    101, -0.707106769, -0.707106769,  0.777777791
    102,           0.,          -1.,  0.777777791
    103,  0.707106769, -0.707106769,  0.777777791
    104,           1.,           0.,  0.777777791
    105,  0.707106769,  0.707106769,  0.777777791
    106,           0.,           1.,  0.777777791
    107,   0.92944634,   1.77091205,           6.
    108,   1.64596772,    1.1361295,           6.
    109,   1.98541772,  0.241073355,           6.
    110,   1.87003243,   -0.7092098,           6.
    111,   1.32624531,  -1.49702156,           6.
    112,  0.478631318,  -1.94188368,           6.
    113, -0.478631318,  -1.94188368,           6.
    114,  -1.32624531,  -1.49702156,           6.
    115,  -1.87003243,   -0.7092098,           6.
    116,  -1.98541772,  0.241073355,           6.
    117,  -1.64596772,    1.1361295,           6.
    118,  -0.92944634,   1.77091205,           6.
    119,           0.,           2.,           6.
    120,   0.92944634,   1.77091205,           5.
    121,   1.64596772,    1.1361295,           5.
    122,   1.98541772,  0.241073355,           5.
    123,   1.87003243,   -0.7092098,           5.
    124,   1.32624531,  -1.49702156,           5.
    125,  0.478631318,  -1.94188368,           5.
    126, -0.478631318,  -1.94188368,           5.
    127,  -1.32624531,  -1.49702156,           5.
    128,  -1.87003243,   -0.7092098,           5.
    129,  -1.98541772,  0.241073355,           5.
    130,  -1.64596772,    1.1361295,           5.
    131,  -0.92944634,   1.77091205,           5.
    132,           0.,           2.,           5.
    133,   0.92944634,   1.77091205,           4.
    134,   1.64596772,    1.1361295,           4.
    135,   1.98541772,  0.241073355,           4.
    136,   1.87003243,   -0.7092098,           4.
    137,   1.32624531,  -1.49702156,           4.
    138,  0.478631318,  -1.94188368,           4.
    139, -0.478631318,  -1.94188368,           4.
    140,  -1.32624531,  -1.49702156,           4.
    141,  -1.87003243,   -0.7092098,           4.
    142,  -1.98541772,  0.241073355,           4.
    143,  -1.64596772,    1.1361295,           4.
    144,  -0.92944634,   1.77091205,           4.
    145,           0.,           2.,           4.
    146,   0.92944634,   1.77091205,           3.
    147,   1.64596772,    1.1361295,           3.
    148,   1.98541772,  0.241073355,           3.
    149,   1.87003243,   -0.7092098,           3.
    150,   1.32624531,  -1.49702156,           3.
    151,  0.478631318,  -1.94188368,           3.
    152, -0.478631318,  -1.94188368,           3.
    153,  -1.32624531,  -1.49702156,           3.
    154,  -1.87003243,   -0.7092098,           3.
    155,  -1.98541772,  0.241073355,           3.
    156,  -1.64596772,    1.1361295,           3.
    157,  -0.92944634,   1.77091205,           3.
    158,           0.,           2.,           3.
    159,   0.92944634,   1.77091205,           2.
    160,   1.64596772,    1.1361295,           2.
    161,   1.98541772,  0.241073355,           2.
    162,   1.87003243,   -0.7092098,           2.
    163,   1.32624531,  -1.49702156,           2.
    164,  0.478631318,  -1.94188368,           2.
    165, -0.478631318,  -1.94188368,           2.
    166,  -1.32624531,  -1.49702156,           2.
    167,  -1.87003243,   -0.7092098,           2.
    168,  -1.98541772,  0.241073355,           2.
    169,  -1.64596772,    1.1361295,           2.
    170,  -0.92944634,   1.77091205,           2.
    171,           0.,           2.,           2.
    172,   0.92944634,   1.77091205,           1.
    173,   1.64596772,    1.1361295,           1.
    174,   1.98541772,  0.241073355,           1.
    175,   1.87003243,   -0.7092098,           1.
    176,   1.32624531,  -1.49702156,           1.
    177,  0.478631318,  -1.94188368,           1.
    178, -0.478631318,  -1.94188368,           1.
    179,  -1.32624531,  -1.49702156,           1.
    180,  -1.87003243,   -0.7092098,           1.
    181,  -1.98541772,  0.241073355,           1.
    182,  -1.64596772,    1.1361295,           1.
    183,  -0.92944634,   1.77091205,           1.
    184,           0.,           2.,           1.
    185,   1.29678023, -0.592295229,   6.65822983
    186, -0.628953338,  -1.20550668,   2.67424846
    187, -0.427417785,  -1.38613868,   3.38769507
    188,    1.2060616, -0.668662071,   1.71237111
    189,   1.35146308,  0.361492574,  0.392078757
    190, -0.386556834,   -1.3408587,   6.55401754
    191,  0.478953302,  -1.31672943,   6.60020733
    192,  0.447861552,  -1.38300824,  0.457258821
    193, -0.658941031,  -1.23685074,  0.429073155
    194,  -1.27184212,  -0.49904564,  0.424280375
    195,  -1.29906607,  0.522188902,   1.58592844
    196,  -1.28378224,  0.480803013,   2.65682435
    197,  -1.24349463,   0.62830621,  0.467737019
    198,  0.609920919,   1.26779008,  0.459182322
    199, -0.543474019,    1.2881974,  0.484944791
    200,  -1.30848491,  0.508100092,   5.48299503
    201,  -1.26841104,  0.504825056,   4.29009438
    202,  -1.26243079,  0.563418746,   6.52073717
    203,   1.24514544,  0.532980561,   5.45991707
    204,   1.39228678,  0.484410584,   4.37190056
    205,    1.2914691,  0.655428588,   3.42836833
    206,   1.25634587, -0.558136404,    3.4192102
    207,  0.508821249,  -1.29380739,   3.47287726
    208,  0.748366177,   -1.3212291,   4.15242529
    209,  0.554783165,   1.29332674,    6.5979948
    210,   1.24213374,   0.63149786,   6.53504515
    211, -0.545234382,   1.22180593,    6.5914607
    212,   1.21487927, -0.781202972,  0.487978131
    213,  -1.34251332, -0.578979671,   3.58384395
    214,  -1.31504905,  0.528597951,   3.58995056
    215, -0.892193079,  -1.23216879,   6.03547382
    216,  -1.34274483, -0.567596972,   6.49947214
    217, -0.764816165,   1.25535512,   3.31734967
    218,  0.516286492,   1.36078513,   3.49960136
    219,  0.674727678,   -1.2870698,   2.62335134
    220,  0.747844756, -0.962747931,   5.90952492
    221,   1.26626134,  0.558880925,   2.43650699
    222, -0.853394926,    1.1341691,   1.88826621
*Element, type=C3D4
  1, 185,  34,  10,   9
  2, 185, 109,  33,  34
  3, 185, 110,  48, 109
  4, 186, 187, 153, 152
  5, 186, 187, 152,  78
  6, 174,  97, 161, 173
  7,  88,  95, 188,  87
  8, 186, 166, 153,  85
  9, 186, 165, 166,  85
 10, 186, 165,  86, 152
 11,  27, 189,  17, 104
 12,  28,  27, 189,  17
 13, 189, 173, 105, 174
 14, 189, 105, 173,  29
 15, 189, 104, 174, 105
 16,  17,  29, 105, 189
 17, 112, 190, 191,  46
 18, 192, 193,  24, 178
 19, 192, 102, 193, 178
 20, 193, 194,  23, 179
 21, 193, 179,  24, 178
 22, 193,  14, 194, 101
 23, 193,  24,  14,  15
 24, 195,  83, 196,  84
 25, 195, 181,  92, 168
 26, 195, 196,  83, 169
 27, 195, 197, 181, 182
 28, 195, 197, 182,  99
 29, 195,  92,  99,  91
 30, 198, 199,   3,   2
 31, 198, 184, 199, 106
 32, 198,  29, 173, 105
 33, 198, 106, 172, 184
 34, 198,  18,  30,  29
 35, 198, 106,   2,  18
 36, 198, 173, 172, 105
 37, 200, 129, 201,  60
 38, 200, 201, 130,  59
 39, 200,  43, 202,  44
 40, 200, 116, 202, 117
 41, 200, 116, 117, 129
 42, 200, 118, 117,  43
 43, 121, 203,  57,  65
 44,  73, 204, 134,  65
 45, 205, 135, 204,  72
 46, 135, 204,  64, 122
 47, 206, 149, 150,  79
 48, 206, 207,  79, 150
 49, 206, 207, 137, 208
 50,  72, 206,  80, 135
 51, 206, 148, 136, 149
 52, 206,  71, 207, 208
 53, 206, 136,  72,  71
 54, 199, 183,  20, 182
 55, 199,   2,  99,  12
 56, 198, 199,   2, 106
 57,  91, 199, 182, 183
 58, 106, 183,  98, 184
 59, 183, 199, 106,  91
 60, 199,  19, 184,   3
 61, 209,  32, 108, 107
 62, 209,  11, 210,  32
 63,   4, 209,  50, 119
 64, 209, 119,  31, 107
 65, 120,  66, 145, 133
 66,   1, 209,  50,   4
 67, 209,  11,   1,  49
 68, 202, 211,  43, 117
 69, 202, 211,  41,   5
 70, 202,  41,   6,   5
 71, 200,  44, 202, 116
 72, 202, 116,  44,  40
 73, 202,  41,  40,   6
 74, 192, 178,  25, 177
 75, 192, 212, 176,  26
 76, 192, 212, 103, 176
 77, 192,  15,  25,  24
 78, 192,  16, 212,  26
 79, 192,  25,  15,  16
 80, 119,   4, 211,  50
 81, 211, 118, 119,  50
 82, 211, 118,  43, 117
 83, 202, 211, 117,  41
 84, 211,   5,  42,  41
 85, 211,   4,  42,   1
 86, 211,  42,   5,   1
 87, 187,  78, 207, 151
 88, 187, 207,  70, 138
 89, 187, 213,  77, 153
 90, 187, 153, 152, 140
 91, 187, 213, 140,  69
 92, 187,  77,  69,  70
 93, 213,  68, 214, 142
 94, 213,  69,  68,  61
 95, 213, 154,  77, 153
 96, 213, 141, 140,  61
 97, 213,  77,  76,  69
 98, 187, 213, 153, 140
 99, 200,  51,  59, 130
100, 200,  60, 201,  59
101, 200,  60,  52, 129
102, 201, 130, 142, 129
103, 201, 142, 214,  68
104, 201,  67, 214, 143
105, 201,  60,  67,  59
106,   7, 190,  38,  45
107, 210,  48, 109,  33
108, 215,  38, 114, 113
109, 216, 116,  44, 115
110, 216,  40, 116, 115
111, 216,  40,  39,   6
112, 216,  39,   7,   6
113, 124,  55, 123,  63
114, 216, 215, 114, 115
115, 217,  67, 214,  75
116, 217, 144, 143,  67
117, 217, 144, 157, 156
118, 218,  74, 217,  82
119, 218, 158, 217, 145
120, 217, 145, 158, 157
121, 203,  49, 108,  57
122, 203, 210, 108,  49
123, 203, 122, 204, 121
124,  64, 204,  65, 203
125, 203, 210,  48, 109
126, 190,   8,  45,   7
127, 206, 207, 150, 137
128, 187, 152, 151, 139
129, 187, 207, 138, 151
130, 207, 150, 219,  79
131, 187, 139, 138,  70
132, 207,  70, 208,  71
133, 207,  78, 219, 151
134, 191, 112, 111,  36
135, 190,  36, 191,   8
136, 191,   9,   8,  36
137, 191,  36,  35,   9
138,  54,  55, 112, 125
139, 185, 111, 110,  35
140,  46, 112, 220, 191
141, 214, 155, 142, 143
142, 214, 196, 155, 156
143, 214, 196,  75,  76
144, 201, 143, 214, 142
145, 201,  68, 214,  67
146, 217, 143, 214,  67
147,  73, 205, 134, 204
148,  36, 190, 191, 112
149, 205,  73, 218,  81
150, 135, 206,  80, 148
151, 221, 147, 205, 148
152, 205, 204, 135, 134
153, 147,  81, 146, 221
154, 194, 181,  22, 180
155, 194,  21, 181, 100
156, 194, 180,  23, 179
157, 194, 101, 180, 179
158, 194,  13,  22,  21
159, 194,  14,  23,  22
160, 194,  14,  22,  13
161, 195, 181, 197, 100
162, 197, 182,  21, 181
163, 197,  13,  21,  20
164, 197,  13,  20,  12
165, 179,  93, 166, 178
166, 199,  20,  19,  12
167, 199, 197,  99, 182
168, 199, 197, 182,  20
169, 209,  49, 210,  11
170, 209,  32,  31,  11
171,  66,  65, 133, 120
172, 203, 210, 109, 108
173, 210,  33, 109, 108
174, 209, 108, 210,  49
175, 210,  32,  11,  10
176, 210,  10,  33,  32
177, 218,  81,  73,  74
178, 218,  82,  81,  74
179, 218, 205, 134,  73
180,  81, 205, 147, 218
181, 218,  82, 158, 146
182, 218, 145,  74, 133
183, 160, 221, 159,  97
184, 218, 158, 145, 133
185,  17, 104,  16,  27
186,  28, 175, 189,  27
187, 192,  26, 176, 177
188,  46, 112, 190, 113
189, 104,  27, 175, 212
190, 212,  16,  27,  26
191, 195, 196, 169, 168
192, 195,  84,  92,  91
193, 195,  84,  91,  83
194, 196, 168,  84, 155
195, 214, 155, 196,  76
196, 214,  75, 196, 156
197, 196,  76,  83,  75
198,  83,  90, 222, 157
199, 222, 183, 182, 170
200, 208, 125, 137, 124
201, 125,  62, 138, 126
202, 136, 208, 124,  63
203, 207, 138, 208,  70
204, 169, 195, 222,  83
205, 208,  62,  63,  70
206, 152,  78,  86, 186
207, 219,  86, 151,  78
208, 219, 163,  87, 150
209, 199,  12,  19,   2
210, 207, 151, 219, 150
211, 207,  79, 219,  78
212, 219, 163, 164,  87
213, 219, 151,  86, 164
214,  83, 222,  98,  91
215, 215,  45, 216,  38
216, 190,  38,  37,   7
217, 190,   8,  37,  36
218, 190,   7,  37,   8
219, 190,  36,  37, 112
220, 190, 112,  37, 113
221, 131, 130,  59,  51
222, 221, 162, 161, 149
223, 121,  65, 133, 134
224,  59,  74,  67, 144
225, 204, 121, 122, 134
226,  65, 204, 134, 121
227, 111, 191,  47, 220
228, 162, 150, 149,  87
229, 140, 139,  69,  61
230, 144,  66,  59,  74
231,  65,  73,  66, 133
232, 133, 145,  74,  66
233, 209,  49, 107, 108
234, 203,  49,  57,  56
235,  46,  45, 215, 190
236,  54,  46, 112, 220
237,  43,  51, 200, 118
238,  43, 118,  50,  58
239, 190,  45, 215,  38
240, 185,  47, 110, 111
241, 203, 110, 122, 109
242, 203, 123, 122, 110
243, 115,  53,  45, 215
244, 211,   1,   5,  50
245,  90, 222,  98,  83
246, 215, 190, 113,  46
247,  55,  54, 220,  47
248, 138,  62, 139, 126
249, 111, 124, 112,  55
250, 108,  49, 107,  57
251, 108,  57, 120, 121
252,  98, 171, 170,  90
253, 220,  55, 112,  54
254, 132, 107,  58, 120
255, 162, 188,  87,  88
256, 122, 204,  64, 203
257,  64, 123, 122, 203
258, 121,  57, 120,  65
259, 127, 140,  61, 139
260, 107,  57,  50,  58
261, 191, 112, 220, 111
262, 163, 188,  87, 162
263, 163, 176,  95, 188
264, 120, 107,  58,  57
265, 118,  51, 200, 130
266,  65, 203,  57,  64
267,  46, 113, 215,  54
268, 203, 210,  49,  48
269,  53, 215, 115, 127
270, 132,  58, 131,  66
271, 123,  56, 203,  64
272, 188, 163,  87,  95
273, 111, 220,  47, 110
274, 113, 125, 126,  54
275,  69,  61, 139,  62
276, 128, 127, 140,  61
277, 201,  60, 129, 142
278,  55, 125,  63, 124
279, 203,  57, 108, 121
280, 127,  54,  53, 215
281,  49,  57,  50, 107
282,  55, 220, 110,  47
283, 220, 191,  47,  46
284, 143, 130,  59, 131
285,  54, 127,  53,  61
286, 213,  61, 140,  69
287, 203,  48,  56, 110
288,  55, 111, 110, 220
289,  60, 128, 129, 141
290, 216, 215, 115,  45
291,  47,  54, 220,  46
292, 111,  55, 112, 220
293, 126, 113, 215, 114
294, 125,  54, 113, 112
295, 187,  69, 140, 139
296, 187,  70,  69, 139
297, 115, 216,  39, 114
298, 215, 127, 126, 114
299,  52, 115,  53,  45
300, 119,  58, 118, 131
301,  57, 203,  56,  64
302, 115,  52, 128, 116
303,  54, 113, 215, 126
304, 114, 115, 215, 127
305, 221,  89,  88,  81
306,  54, 127, 126, 215
307, 115, 128,  52,  53
308, 120,  58, 132,  66
309, 120,  66,  65,  58
310, 209, 107,  50, 119
311, 131, 130,  51, 118
312,  58, 119, 118,  50
313, 119,  58, 132, 107
314,  65,  58,  57, 120
315, 131,  66,  59, 144
316,  97,  96, 104, 174
317, 162,  88,  96, 188
318, 173, 160,  97, 161
319, 221, 161, 160, 148
320,  50, 107,  58, 119
321, 202, 116,  40,  41
322,  27, 175, 212, 176
323, 206, 208, 136,  71
324, 148, 135, 205,  80
325, 209,  49,   1,  50
326,  91, 183, 222,  98
327, 217,  82,  67,  75
328, 209,   1,  11,  31
329, 192, 177,  25,  26
330, 212, 175, 103, 176
331, 215,  54,  53,  46
332,  97, 105, 174, 104
333, 188, 175, 176,  95
334,  97, 174, 105, 173
335, 160,  97, 161, 221
336, 198, 173,  29,  30
337, 198,  18,   2,  30
338, 174, 189, 175, 104
339, 104, 103, 175,  96
340, 159, 146,  90,  89
341, 162, 161,  96, 221
342,  90, 170, 157, 158
343, 196, 169, 168, 156
344, 199, 197,  12,  99
345, 195, 197,  99, 100
346, 168, 167,  84, 155
347, 167, 166,  85, 154
348, 167,  85, 166,  93
349, 168,  84, 167,  92
350, 180, 167,  93,  92
351, 194, 180,  22,  23
352, 166, 165,  93,  85
353, 193,  24, 179,  23
354, 172,  97,  98, 105
355, 186, 165, 152, 153
356, 219, 164, 163, 151
357, 164,  86, 152, 151
358, 192,  25, 178,  24
359, 192, 102, 177, 103
360, 159,  89,  90,  97
361, 189, 174,  29, 173
362, 221,  81,  88,  80
363, 174,  96, 161,  97
364,  91, 183,  98, 106
365, 175, 189,  27, 104
366, 173, 172,  97, 160
367, 160, 172,  97, 159
368, 189, 104, 105,  17
369, 185,  34,  33,  10
370, 198, 172, 106, 105
371, 195, 222,  83,  91
372, 180, 100,  92,  93
373, 214, 156, 155, 143
374, 213, 155, 154, 142
375, 179, 167, 166,  93
376, 195, 182, 181, 169
377, 154, 153,  85,  77
378, 213, 154, 153, 141
379, 155,  76, 154,  84
380, 186, 153,  77,  85
381, 178, 166, 165,  93
382,  86, 164,  94,  87
383, 187, 140, 152, 139
384, 204,  64,  65,  72
385, 207, 151, 150, 138
386, 187, 139, 151, 138
387, 165, 152, 164,  86
388, 219, 163, 150, 151
389, 206,  72, 136, 135
390, 218, 146, 158, 133
391, 146,  89,  81,  82
392, 156, 157, 217,  83
393, 217, 157, 144, 145
394, 146,  90, 171, 159
395, 132, 131, 144,  66
396, 196, 168, 155, 156
397, 213,  76, 214,  68
398, 142,  60, 141,  68
399, 213, 153, 140, 141
400, 213, 214, 155, 142
401, 216,  44,  45, 115
402, 127, 128,  53,  61
403, 221,  80, 149, 148
404, 207, 150, 137, 138
405, 221,  80,  88, 149
406, 221, 205,  81,  80
407, 206, 137, 150, 149
408, 186,  86, 165,  85
409, 219,  79,  87,  86
410,  63,  64, 123, 136
411, 206, 136, 148, 135
412, 195, 181, 100,  92
413,  64, 135, 136,  72
414, 136, 124, 123,  63
415, 206, 136, 137, 149
416, 205, 135, 147, 134
417, 221, 148, 205,  80
418, 185,  33, 109,  48
419, 205, 135, 148, 147
420, 221, 159, 147, 160
421, 185, 111, 191,  47
422, 185, 191,   9,  47
423, 159,  90, 171,  98
424, 217, 144, 156, 143
425,  52, 128,  60,  53
426, 201, 143, 142, 130
427, 128,  61, 140, 141
428, 193, 179, 178, 101
429, 166, 154, 153,  85
430, 219, 150,  87,  79
431, 141,  61,  60, 128
432, 187, 213,  69,  77
433,  62,  61, 127,  54
434, 211,  43,  50,   5
435, 208, 124,  63, 125
436, 179, 178, 101,  93
437, 187,  78,  77,  70
438, 207,  71,  79,  78
439, 187,  70, 207,  78
440,  63,  71, 136, 208
441,  64,  63,  71, 136
442, 206,  79,  80, 149
443, 110,  56, 203, 123
444, 111,  55, 110, 123
445, 137, 136, 208, 124
446,  64,  71,  72, 136
447, 205, 204,  73,  72
448, 204, 134, 122, 135
449, 203, 109,  48, 110
450, 206, 149,  80, 148
451, 123, 135, 136,  64
452, 120, 107,  57, 108
453,  67, 144, 143,  59
454, 203, 121, 108, 109
455, 217, 156, 214, 143
456, 216,  44, 116,  40
457,  62, 139, 126, 127
458, 115,  44,  52, 116
459, 200, 117, 202,  43
460, 187, 151, 152,  78
461,  54,  62, 126, 127
462, 191, 111,  35,  36
463, 208, 125,  62, 138
464, 124, 111, 123,  55
465, 123,  55, 110,  56
466, 203, 121, 109, 122
467, 209, 107,  31,  32
468, 200, 130, 129, 117
469, 146,  90, 158, 171
470, 211, 118,  42,   4
471, 202,   6,  40,  44
472, 202, 211,   5,  43
473, 209,   1,  31,   4
474, 211,  41,  42, 117
475, 202,  44,  43,   6
476, 216,  40, 115,  39
477,  51, 131,  58,  66
478, 216,   7,  39,  38
479, 154,  84,  76,  77
480, 163, 175, 188, 162
481, 185,  35, 191, 111
482, 181, 180, 100,  92
483, 185, 110,  34,  35
484,  38, 215, 114, 216
485, 185,   9, 191,  35
486, 185,  35,  34,   9
487,  99,  91, 199, 182
488, 202, 117, 116,  41
489, 185, 110, 109,  34
490, 213,  68, 142, 141
491, 103, 177,  95, 102
492, 157,  83, 156, 169
493,  50,   4, 211,   1
494,  18,  17,  29, 105
495, 192, 103, 212,  16
496, 189,  17,  29,  28
497, 192, 177, 176, 103
498, 217,  90, 157, 158
499, 104,  16,  27, 212
500, 194, 181, 180, 100
501, 188, 162, 175,  96
502, 192, 193, 102,  15
503, 193,  24,  23,  14
504, 193,  23, 194,  14
505, 192, 103,  16,  15
506, 222, 170, 182, 169
507, 199, 183,  19,  20
508, 221, 149,  88, 162
509, 131, 119,  58, 132
510, 218,  81, 146, 147
511, 194,  21, 100,  13
512, 193, 102,  14, 101
513, 130, 118, 117, 200
514, 199,  19,   3,   2
515, 198,   3, 199, 184
516, 192, 103,  15, 102
517, 198, 105, 106,  18
518, 212, 104,  16, 103
519, 104, 212, 175, 103
520, 163, 150, 162,  87
521, 165,  93,  85,  86
522, 194,  13, 101,  14
523, 198, 172, 173,  30
524, 197,  12, 100,  13
525, 181,  92, 168, 180
526, 169, 182, 222, 195
527, 197, 100,  12,  99
528, 174,  96, 104, 175
529,  90,  98, 222, 170
530, 221,  89,  96,  88
531, 198,  30,   3, 172
532, 219,  87, 164,  86
533, 198,   2,   3,  30
534, 192,  26,  25,  16
535, 165,  86, 164,  94
536, 167,  84, 155, 154
537, 199,  99,   2, 106
538, 167,  92,  84,  85
539, 197, 100,  21,  13
540, 195,  84, 196, 168
541,  80, 135, 205,  72
542, 194, 100, 180, 101
543, 193,  15,  14, 102
544, 197, 182,  20,  21
545, 205,  80,  73,  81
546, 165,  86,  94,  93
547, 144,  74,  67, 217
548,  89, 146,  90,  82
549, 164, 176,  95, 163
550, 221, 148, 160, 147
551, 149,  79,  87, 150
552,  73,  74,  66, 133
553, 218, 134, 146, 133
554,  83, 157, 217,  90
555,  90,  82, 217,  75
556, 162, 221,  96,  88
557, 192,  24, 193,  15
558, 205,  72,  73,  80
559, 195,  92, 100,  99
560, 184, 199, 106, 183
561, 199,  12, 197,  20
562, 198,  29, 105,  18
563, 194,  22, 181,  21
564, 195, 181, 168, 169
565, 194, 101,  13, 100
566, 167, 154,  85,  84
567, 197, 100, 181,  21
568, 198,   3, 184, 172
569, 149,  87,  88, 162
570, 178, 101,  93,  94
571,  88, 149,  80,  87
572, 196, 156,  83, 169
573, 213,  77, 154,  76
574, 186,  85,  78,  86
575, 186,  85,  77,  78
576, 195, 182,  91,  99
577, 151, 152,  78,  86
578, 186, 153, 187,  77
579, 221, 159,  97,  89
580, 196, 156,  75,  83
581, 218,  74,  73, 133
582,  98, 105, 106, 172
583,  64, 122, 123, 135
584, 199,  99, 106,  91
585, 174, 162, 161,  96
586, 218, 147, 146, 134
587, 217,  83,  75, 156
588, 192, 178, 177, 102
589, 219,  78,  79,  86
590, 199, 183, 184,  19
591,  80, 149,  79,  87
592, 183, 171, 170,  98
593, 206,  71,  72,  79
594, 218, 217,  74, 145
595,  95, 175, 176, 103
596, 195, 168,  92,  84
597, 167,  93,  92,  85
598, 207, 208, 138, 137
599,  54, 125, 126,  62
600, 206,  72,  80,  79
601,  94, 177, 165, 178
602, 145,  74,  66, 144
603, 213, 155,  76, 154
604, 208, 125,  63,  62
605, 175,  96,  95, 188
606,  90,  83,  75, 217
607, 217,  74,  67,  82
608, 171, 158, 170,  90
609, 103,  96,  95, 175
610, 134,  73, 133, 218
611, 221, 161, 148, 149
612, 157,  90, 222, 170
613, 158,  82, 217,  90
614, 134,  65, 133,  73
615, 196,  76, 155,  84
616, 170,  98, 222, 183
617, 204,  65,  73,  72
618, 180, 179,  93, 167
619, 128,  61,  60,  53
620,  28, 174, 189, 175
621,  95, 164, 177, 176
622, 208,  71,  70,  63
623, 222, 157, 169,  83
624, 154,  77,  85,  84
625,  70, 139,  62,  69
626, 208,  70, 138,  62
627,  62,  55,  54, 125
628, 178, 165,  94,  93
629, 180, 179, 101,  93
630,  62,  61, 139, 127
631, 196,  84,  83,  76
632, 186, 153, 166, 165
633, 201,  67,  60,  68
634, 214,  67,  68,  75
635, 206,  79, 207,  71
636, 180, 168, 167,  92
637, 214,  68,  76,  75
638, 128, 127,  53, 115
639,  94,  95, 177, 102
640, 171, 184,  98, 183
641, 213,  68,  69,  76
642,  91, 183, 182, 222
643, 178,  94, 102, 101
644, 206, 208, 137, 136
645, 102,  94, 178, 177
646,  94, 164, 165, 177
647, 164,  87,  95,  94
648, 207,  78,  70,  71
649, 176, 103, 177,  95
650, 204, 135,  64,  72
651,  59, 144, 143, 131
652,  88,  96, 188,  95
653, 176, 175, 188, 163
654,  94, 164, 177,  95
655,  95, 163,  87, 164
656, 221,  89,  97,  96
657, 185,  48, 110,  47
658, 180,  93, 101, 100
659, 203, 204,  65, 121
660, 132,  66, 145, 120
661, 144, 132,  66, 145
662, 182, 222, 195,  91
663, 208, 138, 137, 125
664, 193, 194, 179, 101
665,  62, 125,  63,  55
666, 205, 218, 134, 147
667, 124, 125, 112,  55
668, 146, 221,  89, 159
669, 221, 146,  89,  81
670, 186, 187,  78,  77
671,  98, 171, 159, 184
672, 200,  59,  52,  60
673, 201, 143,  59,  67
674, 114, 216,  39,  38
675, 129,  52, 128,  60
676, 200, 201, 129, 130
677,  90,  82, 146, 158
678, 120,  65, 133, 121
679, 217,  75, 214, 156
680, 211, 118,  50,  43
681,  90,  97,  98, 159
682, 123,  63,  55,  56
683, 217,  74, 145, 144
684, 211,   4, 119, 118
685, 209,  31, 119,   4
686, 203,  49,  56,  48
687, 141,  60,  61,  68
688, 113,  54,  46, 112
689,  55,  47, 110,  48
690, 213, 142, 154, 141
691, 210,  33, 108,  32
692,  56,  64, 123,  63
693, 138,  70, 139,  62
694, 213, 155, 214,  76
695, 211, 118, 117,  42
696, 190, 113,  37,  38
697,  38, 190, 113, 215
698, 200,  51,  44,  52
699, 212,  27, 176,  26
700,  96, 162, 175, 174
701, 200,  59,  51,  52
702, 200,  44, 116,  52
703, 201, 142,  68,  60
704, 172, 184,  98, 159
705,  51,  58, 118,  43
706, 118, 131,  58,  51
707, 218, 146,  81,  82
708, 209, 210, 108,  32
709, 189,  29, 174,  28
710, 209,  50, 107,  49
711, 105, 172,  97, 173
712,  96, 161,  97, 221
713, 210,  48,  10,  11
714, 185,  48,  47,  10
715,  56,  55, 110,  48
716, 185,  47,   9,  10
717, 191,  46,   9,  47
718, 170, 157, 169, 222
719, 210,  48,  33,  10
720, 213, 141,  61,  68
721, 191,  46,   8,   9
722,  53,  45, 215,  46
723, 190,  46,  45,   8
724, 190, 191,  46,   8
725, 193, 101, 178, 102
726,  45, 115,  44,  52
727, 201, 130,  59, 143
728, 200,  51,  43,  44
729, 216,   7,  45,  44
730, 218, 217, 158,  82
731,  38,  45, 216,   7
732, 116, 129,  52, 128
733, 142,  60, 129, 141
734, 106, 184,  98, 172
735, 216,  40,   6,  44
736, 202,   5,   6,  43
737, 210,  11,  49,  48
738, 221, 205, 147,  81
739, 216,   6,   7,  44
740,  51, 131,  66,  59
741, 200, 129,  52, 116
742, 185,  10,  33,  48
743, 159, 172,  97,  98
744, 221, 146, 147, 159
*Nset, nset=Set-1, generate
   1,  222,    1
*Elset, elset=Set-1, generate
   1,  744,    1
** Section: Section-1
*Solid Section, elset=Set-1, material=Material-1
,
*End Instance
**  
*Instance, name=Part-2-1, part=Part-2
*Node
      1,           0.,           1.,           0.
      2,           0.,           1.,           7.
      3, -0.707106769,  0.707106769,           0.
      4,          -1.,           0.,           0.
      5, -0.707106769, -0.707106769,           0.
      6,           0.,          -1.,           0.
      7,  0.707106769, -0.707106769,           0.
      8,           1.,           0.,           0.
      9,  0.707106769,  0.707106769,           0.
     10,  0.707106769,  0.707106769,           7.
     11,           1.,           0.,           7.
     12,  0.707106769, -0.707106769,           7.
     13,           0.,          -1.,           7.
     14, -0.707106769, -0.707106769,           7.
     15,          -1.,           0.,           7.
     16, -0.707106769,  0.707106769,           7.
     17, -0.158106357,  0.325598449,           0.
     18, -0.306635022, -0.308590502,           0.
     19,  0.324912041, -0.163832009,           0.
     20,  0.707106769,  0.707106769,   6.22222233
     21,           1.,           0.,   6.22222233
     22,  0.707106769, -0.707106769,   6.22222233
     23,           0.,          -1.,   6.22222233
     24, -0.707106769, -0.707106769,   6.22222233
     25,          -1.,           0.,   6.22222233
     26, -0.707106769,  0.707106769,   6.22222233
     27,           0.,           1.,   6.22222233
     28,  0.707106769,  0.707106769,   5.44444466
     29,           1.,           0.,   5.44444466
     30,  0.707106769, -0.707106769,   5.44444466
     31,           0.,          -1.,   5.44444466
     32, -0.707106769, -0.707106769,   5.44444466
     33,          -1.,           0.,   5.44444466
     34, -0.707106769,  0.707106769,   5.44444466
     35,           0.,           1.,   5.44444466
     36,  0.707106769,  0.707106769,   4.66666651
     37,           1.,           0.,   4.66666651
     38,  0.707106769, -0.707106769,   4.66666651
     39,           0.,          -1.,   4.66666651
     40, -0.707106769, -0.707106769,   4.66666651
     41,          -1.,           0.,   4.66666651
     42, -0.707106769,  0.707106769,   4.66666651
     43,           0.,           1.,   4.66666651
     44,  0.707106769,  0.707106769,   3.88888884
     45,           1.,           0.,   3.88888884
     46,  0.707106769, -0.707106769,   3.88888884
     47,           0.,          -1.,   3.88888884
     48, -0.707106769, -0.707106769,   3.88888884
     49,          -1.,           0.,   3.88888884
     50, -0.707106769,  0.707106769,   3.88888884
     51,           0.,           1.,   3.88888884
     52,  0.707106769,  0.707106769,   3.11111116
     53,           1.,           0.,   3.11111116
     54,  0.707106769, -0.707106769,   3.11111116
     55,           0.,          -1.,   3.11111116
     56, -0.707106769, -0.707106769,   3.11111116
     57,          -1.,           0.,   3.11111116
     58, -0.707106769,  0.707106769,   3.11111116
     59,           0.,           1.,   3.11111116
     60,  0.707106769,  0.707106769,   2.33333325
     61,           1.,           0.,   2.33333325
     62,  0.707106769, -0.707106769,   2.33333325
     63,           0.,          -1.,   2.33333325
     64, -0.707106769, -0.707106769,   2.33333325
     65,          -1.,           0.,   2.33333325
     66, -0.707106769,  0.707106769,   2.33333325
     67,           0.,           1.,   2.33333325
     68,  0.707106769,  0.707106769,   1.55555558
     69,           1.,           0.,   1.55555558
     70,  0.707106769, -0.707106769,   1.55555558
     71,           0.,          -1.,   1.55555558
     72, -0.707106769, -0.707106769,   1.55555558
     73,          -1.,           0.,   1.55555558
     74, -0.707106769,  0.707106769,   1.55555558
     75,           0.,           1.,   1.55555558
     76,  0.707106769,  0.707106769,  0.777777791
     77,           1.,           0.,  0.777777791
     78,  0.707106769, -0.707106769,  0.777777791
     79,           0.,          -1.,  0.777777791
     80, -0.707106769, -0.707106769,  0.777777791
     81,          -1.,           0.,  0.777777791
     82, -0.707106769,  0.707106769,  0.777777791
     83,           0.,           1.,  0.777777791
     84,  0.158106357,  0.325598449,           7.
     85,  0.306635022, -0.308590502,           7.
     86, -0.324912041, -0.163832009,           7.
     87,  0.377372086, 0.00551156094,    3.6069243
     88, -0.307712257,  0.220000401,   3.50685287
     89, -0.263006091,  0.278886765,   2.59655809
     90, -0.145935759, -0.283000678,    3.2206521
     91, 0.0198744312,  0.343172044,   4.17337418
     92,  0.281919658, -0.175181612,   4.48626423
     93, 0.0440392792, -0.409500539,   6.47389889
     94,  0.353457332, -0.0790516585,   6.09479666
     95, -0.420424342, -0.250314415,   4.14345407
     96, -0.193990096, -0.300888658,   5.46122265
     97, 0.0881016105,  0.380152255,    5.3356905
     98,  0.227490455, -0.375374109,   5.00483799
     99, -0.375278771, 0.0508810617,   4.53903532
    100,  0.329652518,  0.144224644,   2.51562548
    101, -0.399370879, 0.0149907358,    5.9352169
    102, -0.0385286026,  0.324397266,   1.24612641
    103, -0.559474409, 0.0673847049,  0.433789253
    104, -0.0128676984, -0.387240142,   0.50300169
    105, -0.299580157,   0.28413403,   6.46587753
    106, 0.0137997419, -0.382400334,   3.92473149
    107, -0.380629808, -0.0244863164,   2.58658767
    108, -0.329405099,  0.195018798,   1.89426291
    109,  0.153862551, -0.320102394,   1.70458353
    110, -0.513451338,  0.412209779,   1.29930115
*Element, type=C3D4
  1,  87,  88,  89,  90
  2,  87,  51,  88,  91
  3,  87,  92,  45,  91
  4,  87,  88,  51,  59
  5,  85,  12,  93,  94
  6,  95,  49,  88,  90
  7,  31,  96,  23,  30
  8,  97,  92,  98,  99
  9,  89,  87, 100,  59
 10,  25, 101,  93,  24
 11,  88,  89,  90,  57
 12,  59,  88,  89,  87
 13, 102,  82, 103,  81
 14, 103,  18, 104,  80
 15, 103,  80,  81,   5
 16, 102,  81, 103,  80
 17, 103,   4,   5,  81
 18, 103,  82,   3,   4
 19, 103,  82,  17,   3
 20,  97,  42,  35,  43
 21, 101,  26, 105,  27
 22,  99,  41,  49,  95
 23,  34,  42,  35,  97
 24,  96,  31,  23,  24
 25, 105,  16,  26,  25
 26,  98,  99,  96,  97
 27,  43,  99,  50,  91
 28,  99,  97,  34,  33
 29,  97,  96,  94, 101
 30,  93,  14,  23,  13
 31,  93,  25,  86, 105
 32, 105,  84,  85,  94
 33, 105, 101,  93,  25
 34,  87,  91,  45,  44
 35,  87, 106,  91,  88
 36,  87, 106,  88,  90
 37, 106,  91,  88,  95
 38, 106,  40,  95,  48
 39, 105,  86,  84,  16
 40,  64, 107,  56,  63
 41, 107,  90,  57,  56
 42, 107,  57,  65,  64
 43, 107, 100,  90,  63
 44,  65, 107,  64, 108
 45, 107, 100,  63, 109
 46, 100,  89, 108, 107
 47,  67, 100,  89, 108
 48,  91,  36,  44,  51
 49,  92,  91,  37,  45
 50,  36,  91,  37,  97
 51,  88,  89,  57,  58
 52,  91,  95,  49,  88
 53,  42,  43,  99,  50
 54, 109, 104,  79,  80
 55, 104,  78,  19,  77
 56,  70, 109,  62,  69
 57, 109, 104,  77,  78
 58, 102,  17,  77, 104
 59,  24,  14,  23,  93
 60, 105,  27,   2,  84
 61, 105,   2,  16,  84
 62, 105,  15,  25,  86
 63, 105,  25,  15,  16
 64, 100,  63, 109,  62
 65,  89,  66,  58,  59
 66, 101,  97,  33,  34
 67,  26,  34,  27, 101
 68,  94,  21,  22,  29
 69,  93,  22,  23,  30
 70,  96, 101,  32,  24
 71,  96,  32,  31,  24
 72,  96,  23,  30,  93
 73,  97,  35,  20,  28
 74,  99,  42,  41,  34
 75,  43,  99,  97,  42
 76,  99,  41,  33,  34
 77,  88,  91,  50,  49
 78,  90,  47,  54, 106
 79,  89,  58,  66,  65
 80,  90,  56,  55,  48
 81, 108, 109, 102,  75
 82, 104,   6,   7,  79
 83, 100,  67,  59,  52
 84, 109,  79,  71,  72
 85, 108, 107,  64, 109
 86, 102, 109,  72,  80
 87, 109,  62,  63,  70
 88, 109,  63,  71,  70
 89, 106,  39,  47,  46
 90,  90,  63, 100,  62
 91,  40,  99,  96,  98
 92, 100,  69, 109,  68
 93,  88,  51,  58,  50
 94,  92,  39,  98,  40
 95,  97,  28,  29,  36
 96,  89,  57,  58,  65
 97,  92, 106,  39,  40
 98, 102,  81, 110,  82
 99, 110,  82,  74,  75
100, 110, 102, 108,  73
101, 102,  82, 110,  75
102, 110,  82,  81,  74
103, 102,  82,  75,  83
104,  96,  39,  32,  40
105, 102, 104, 103,  17
106,  77,  69,  76,  83
107,  31,  39,  32,  96
108, 102, 109,  77,  69
109,  90,  87, 100,  89
110,  86,  84,  85, 105
111,  68, 102,  83,  69
112, 102,  73,  80,  72
113,  97,  36,  29,  37
114,  90, 100,  54,  62
115, 108, 109,  72, 102
116,  98,  38,  37,  30
117, 108,  74, 110,  73
118,   9,  17,  77,   1
119, 108,  67,  75,  74
120, 108, 102, 110,  75
121,  73, 108,  66,  65
122,  98,  96,  30,  29
123,  92, 106,  95,  91
124,  98,  37,  97,  29
125,  97,  35,  34,  27
126,  20,  94,  21,  84
127,  99,  92,  98,  40
128,  94, 105,  84,  27
129,  94, 101, 105,  27
130,  98,  29,  30,  37
131,  95,  48,  49,  90
132,  90, 100,  87,  54
133,  94,  97,  20,  28
134,  87,  91,  44,  51
135,  99,  95,  49,  91
136,  40, 106,  95,  92
137, 105,  26,  16,   2
138,  99,  40,  41,  95
139,  41,  48,  95,  40
140, 107,  89,  65,  57
141,  49,  48,  95,  41
142,  91,  51,  50,  43
143,  88,  51,  59,  58
144, 106,  95,  90,  48
145,  87,  46, 106,  54
146, 107,  56,  63,  90
147, 109, 108,  72,  64
148,  20,  27,  84,  10
149, 100, 109,  75,  68
150, 102, 108,  73,  72
151, 102, 109,  69,  68
152, 109,  62,  69, 100
153, 102,  75, 109,  68
154,  12,  21,  94,  85
155,  91,  43,  97,  36
156, 104,  79,  80,   6
157,  82,  17, 102, 103
158,  49,  91,  50,  99
159, 102,  73,  81,  80
160, 104,  19,  18,  17
161,  78,  77,   8,  19
162,  69, 102,  83,  77
163, 104,  77,  19,  17
164,  77,   1,  76,   9
165,  94,  30,  93,  96
166,  19,  77,   9,  17
167,   1,  17,  77,  83
168, 103,  81,  82,   4
169, 102, 103, 104,  80
170,  74,  81, 110,  73
171,  83,   3,   1,  17
172, 108, 110,  74,  75
173, 104,  80,  18,   6
174, 109, 104,  78,  79
175, 103,  17,  18,   4
176, 104,  19,   6,  18
177,  80,   6,   5,  18
178,  90,  62,  54,  55
179, 109,  78,  77,  70
180,  89,  66,  59,  67
181,  83, 102,  17,  77
182, 100,  68,  75,  60
183, 108,  74,  73,  66
184,  57,  56,  90,  49
185, 108,  67,  74,  66
186,  64, 108,  72,  65
187, 109,  64,  71,  63
188, 100,  68,  61,  69
189, 102,  73, 110,  81
190,  73, 108,  65,  72
191, 109,  71,  79,  78
192, 103,  17, 104,  18
193, 104,   7,  19,  78
194, 108, 100, 109,  75
195,  90,  62,  55,  63
196, 101,  32,  24,  25
197,  94,  28,  20,  21
198, 103,  18,   5,   4
199, 108,  67, 100,  75
200,  97,  20,  35,  27
201, 100,  53,  54,  61
202,  93,  13,  85,  86
203, 100,  52,  60,  67
204, 108, 107, 109, 100
205,  94,  97, 101,  27
206,  93,  96,  24, 101
207,  84,  94,  21,  85
208, 102, 109, 104,  77
209,  83,  82,  17, 102
210,  90,  49,  88,  57
211, 109,  72,  71,  64
212,  24,  25,  86,  93
213,  89,  90,  57, 107
214,  94,  93,  30,  22
215,  65, 108,  66,  89
216,  78,   7,  19,   8
217, 100,  62,  61,  54
218, 108,  89,  67,  66
219, 100,  68,  60,  61
220, 100,  60,  75,  67
221,  87,  54,  53,  46
222, 104,  78,  79,   7
223, 107,  64, 109,  63
224, 100,  67,  89,  59
225,  87, 100,  52,  53
226, 100,  60,  52,  53
227,  87,  53,  52,  45
228, 102,  83,  75,  68
229,  87,  52,  44,  45
230, 106,  54,  46,  47
231,  94,  93, 105, 101
232,  87,  44,  52,  59
233,  82,   3,  83,  17
234,  96, 101,  97,  33
235,  88,  91,  51,  50
236,  90,  48,  55,  47
237,  55,  90,  47,  54
238,  94, 105,  93,  85
239,  95,  92,  99,  40
240,  88,  50,  58,  57
241, 106,  90,  47,  48
242, 106,  48,  47,  40
243,  92,  46,  39, 106
244,  92,  45,  38,  46
245, 101,  26,  33,  25
246,  91,  45,  44,  37
247,  32,  96,  40,  33
248,  87, 100,  59,  52
249, 109,  71,  78,  70
250,  98,  96,  29,  97
251, 101,  34,  33,  26
252,  92,  45,  37,  38
253,  91, 106,  87,  92
254,  38,  92,  46,  39
255,  87,  53,  45,  46
256, 102, 104, 109,  80
257,  99,  49,  41,  42
258, 109,  72,  80,  79
259,  94,  97,  28,  29
260,  88,  89,  58,  59
261,  99,  42,  50,  49
262, 107,  90, 100,  89
263,  48,  49,  90,  56
264,  91,  51,  43,  36
265,  99,  97,  91,  43
266,  89, 107,  65, 108
267,  91,  92,  99,  95
268,  85, 105,  93,  86
269,  40,  98,  96,  39
270, 106,  40,  47,  39
271,  87,  54, 106,  90
272, 100,  60,  53,  61
273,  91,  37,  97,  92
274,  91,  37,  44,  36
275,  88,  49,  50,  57
276,  96,  94, 101,  93
277,  99,  33,  41,  40
278, 103,  80,   5,  18
279,  96,  97,  99,  33
280,  37,  97,  92,  98
281,  94,  96,  97,  29
282, 107,  57,  64,  56
283,  42,  99,  97,  34
284,  94,  21,  29,  28
285,  94,  22,  30,  29
286,  97,  36,  43,  28
287,  34,  27, 101,  97
288,  92,  98,  38,  37
289,  92,  99,  97,  91
290,  93,  96,  23,  24
291,  39,  98,  96,  31
292, 101,  32,  25,  33
293,  21,  84,  11,  20
294,  94,  97,  27,  20
295,  96,  32, 101,  33
296,  94,  12,  93,  22
297, 109,  70,  77,  69
298,  94,  96,  29,  30
299,  98,  31,  38,  30
300,  93,  85,  13,  12
301,  98,  96,  31,  30
302,  93,  13,  23,  22
303,  85,  12,  21,  11
304,  92,  38,  98,  39
305,  93,  12,  13,  22
306,  22,  21,  94,  12
307,  86,  14,  15,  24
308,  85,  84,  11,  21
309,  14,  86,  93,  24
310,  96,  40,  33,  99
311,  15,  24,  25,  86
312,  46,  92,  45,  87
313,  94,  84,  20,  27
314, 105,  86,  16,  15
315,  10,  84,  20,  11
316, 105,  26,   2,  27
317,  90,  56,  63,  55
318, 101, 105,  26,  25
319,  84,   2,  10,  27
320, 106,  90,  95,  88
321,  83,  69,  76,  68
322,  83,   1,  76,  77
323, 104,   6,  19,   7
324,  87,  59,  51,  44
325,  77,  19,   9,   8
326, 103,   4,   3,  17
327,  97,  35,  28,  43
328, 100,  62,  69,  61
329, 100,  87,  54,  53
330,  92, 106,  87,  46
331,  98,  31,  39,  38
332,  13,  86,  93,  14
*Nset, nset=Set-1, generate
   1,  110,    1
*Elset, elset=Set-1, generate
   1,  332,    1
** Section: Section-2
*Solid Section, elset=Set-1, material=Material-2
,
*End Instance
**  
*Node
      1,           0.,           0.,           7.
*Nset, nset=RP
 1,
*Nset, nset=m_Set-1, instance=Part-1-1
  2,  3, 12, 13, 14, 15, 16, 17, 18, 19, 20, 21, 22, 23, 24, 25
 26, 27, 28, 29, 30
*Nset, nset=m_Set-1, instance=Part-2-1
  1,  3,  4,  5,  6,  7,  8,  9, 17, 18, 19
*Nset, nset=m_Set-2, instance=Part-1-1
  1,  4,  5,  6,  7,  8,  9, 10, 11, 31, 32, 33, 34, 35, 36, 37
 38, 39, 40, 41, 42
*Nset, nset=m_Set-2, instance=Part-2-1
  2, 10, 11, 12, 13, 14, 15, 16, 84, 85, 86
*Surface, type=NODE, name=m_Set-2_CNS_, internal
m_Set-2, 1.
** Constraint: TIE_LOAD
*Coupling, constraint name=TIE_LOAD, ref node=RP, surface=m_Set-2_CNS_
*Kinematic
*End Assembly
** 
** MATERIALS
** 
*Material, name=Material-1
*Elastic
5000., 0.3
*Material, name=Material-2
*Elastic
200., 0.167
** ----------------------------------------------------------------
** 
** STEP: Step-1
** 
*Step, name=Step-1, nlgeom=NO
*Static
1., 1., 1e-05, 1.
** 
** OUTPUT REQUESTS
** 
*Restart, write, frequency=0
** 
** FIELD OUTPUT: F-Output-1
** 
*Output, field, variable=PRESELECT
** 
** HISTORY OUTPUT: H-Output-1
** 
*Output, history, variable=PRESELECT
*End Step
