*Heading
** Job name: simple_rat_800 Model name: simple_rat
** Generated by: Abaqus/CAE 2021
*Preprint, echo=NO, model=NO, history=NO, contact=NO
**
** PARTS
**
*Part, name=Part-1
*End Part
**  
*Part, name=Part-2
*End Part
**  
**
** ASSEMBLY
**
*Assembly, name=Assembly
**  
*Instance, name=Part-1-1, part=Part-1
*Node
      1,           0.,           1.,           7.
      2,           0.,           1.,           0.
      3,           0.,           2.,           0.
      4,           0.,           2.,           7.
      5, -0.707106769,  0.707106769,           7.
      6,          -1.,           0.,           7.
      7, -0.707106769, -0.707106769,           7.
      8,           0.,          -1.,           7.
      9,  0.707106769, -0.707106769,           7.
     10,           1.,           0.,           7.
     11,  0.707106769,  0.707106769,           7.
     12, -0.707106769,  0.707106769,           0.
     13,          -1.,           0.,           0.
     14, -0.707106769, -0.707106769,           0.
     15,           0.,          -1.,           0.
     16,  0.707106769, -0.707106769,           0.
     17,           1.,           0.,           0.
     18,  0.707106769,  0.707106769,           0.
     19, -0.765366852,   1.84775901,           0.
     20,  -1.41421354,   1.41421354,           0.
     21,  -1.84775901,  0.765366852,           0.
     22,          -2.,           0.,           0.
     23,  -1.84775901, -0.765366852,           0.
     24,  -1.41421354,  -1.41421354,           0.
     25, -0.765366852,  -1.84775901,           0.
     26,           0.,          -2.,           0.
     27,  0.765366852,  -1.84775901,           0.
     28,   1.41421354,  -1.41421354,           0.
     29,   1.84775901, -0.765366852,           0.
     30,           2.,           0.,           0.
     31,   1.84775901,  0.765366852,           0.
     32,   1.41421354,   1.41421354,           0.
     33,  0.765366852,   1.84775901,           0.
     34,  0.765366852,   1.84775901,           7.
     35,   1.41421354,   1.41421354,           7.
     36,   1.84775901,  0.765366852,           7.
     37,           2.,           0.,           7.
     38,   1.84775901, -0.765366852,           7.
     39,   1.41421354,  -1.41421354,           7.
     40,  0.765366852,  -1.84775901,           7.
     41,           0.,          -2.,           7.
     42, -0.765366852,  -1.84775901,           7.
     43,  -1.41421354,  -1.41421354,           7.
     44,  -1.84775901, -0.765366852,           7.
     45,          -2.,           0.,           7.
     46,  -1.84775901,  0.765366852,           7.
     47,  -1.41421354,   1.41421354,           7.
     48, -0.765366852,   1.84775901,           7.
     49, -0.707106769,  0.707106769,   6.22222233
     50,          -1.,           0.,   6.22222233
     51, -0.707106769, -0.707106769,   6.22222233
     52,           0.,          -1.,   6.22222233
     53,  0.707106769, -0.707106769,   6.22222233
     54,           1.,           0.,   6.22222233
     55,  0.707106769,  0.707106769,   6.22222233
     56,           0.,           1.,   6.22222233
     57, -0.707106769,  0.707106769,   5.44444466
     58,          -1.,           0.,   5.44444466
     59, -0.707106769, -0.707106769,   5.44444466
     60,           0.,          -1.,   5.44444466
     61,  0.707106769, -0.707106769,   5.44444466
     62,           1.,           0.,   5.44444466
     63,  0.707106769,  0.707106769,   5.44444466
     64,           0.,           1.,   5.44444466
     65, -0.707106769,  0.707106769,   4.66666651
     66,          -1.,           0.,   4.66666651
     67, -0.707106769, -0.707106769,   4.66666651
     68,           0.,          -1.,   4.66666651
     69,  0.707106769, -0.707106769,   4.66666651
     70,           1.,           0.,   4.66666651
     71,  0.707106769,  0.707106769,   4.66666651
     72,           0.,           1.,   4.66666651
     73, -0.707106769,  0.707106769,   3.88888884
     74,          -1.,           0.,   3.88888884
     75, -0.707106769, -0.707106769,   3.88888884
     76,           0.,          -1.,   3.88888884
     77,  0.707106769, -0.707106769,   3.88888884
     78,           1.,           0.,   3.88888884
     79,  0.707106769,  0.707106769,   3.88888884
     80,           0.,           1.,   3.88888884
     81, -0.707106769,  0.707106769,   3.11111116
     82,          -1.,           0.,   3.11111116
     83, -0.707106769, -0.707106769,   3.11111116
     84,           0.,          -1.,   3.11111116
     85,  0.707106769, -0.707106769,   3.11111116
     86,           1.,           0.,   3.11111116
     87,  0.707106769,  0.707106769,   3.11111116
     88,           0.,           1.,   3.11111116
     89, -0.707106769,  0.707106769,   2.33333325
     90,          -1.,           0.,   2.33333325
     91, -0.707106769, -0.707106769,   2.33333325
     92,           0.,          -1.,   2.33333325
     93,  0.707106769, -0.707106769,   2.33333325
     94,           1.,           0.,   2.33333325
     95,  0.707106769,  0.707106769,   2.33333325
     96,           0.,           1.,   2.33333325
     97, -0.707106769,  0.707106769,   1.55555558
     98,          -1.,           0.,   1.55555558
     99, -0.707106769, -0.707106769,   1.55555558
    100,           0.,          -1.,   1.55555558
    101,  0.707106769, -0.707106769,   1.55555558
    102,           1.,           0.,   1.55555558
    103,  0.707106769,  0.707106769,   1.55555558
    104,           0.,           1.,   1.55555558
    105, -0.707106769,  0.707106769,  0.777777791
    106,          -1.,           0.,  0.777777791
    107, -0.707106769, -0.707106769,  0.777777791
    108,           0.,          -1.,  0.777777791
    109,  0.707106769, -0.707106769,  0.777777791
    110,           1.,           0.,  0.777777791
    111,  0.707106769,  0.707106769,  0.777777791
    112,           0.,           1.,  0.777777791
    113,  0.765366852,   1.84775901,   6.22222233
    114,   1.41421354,   1.41421354,   6.22222233
    115,   1.84775901,  0.765366852,   6.22222233
    116,           2.,           0.,   6.22222233
    117,   1.84775901, -0.765366852,   6.22222233
    118,   1.41421354,  -1.41421354,   6.22222233
    119,  0.765366852,  -1.84775901,   6.22222233
    120,           0.,          -2.,   6.22222233
    121, -0.765366852,  -1.84775901,   6.22222233
    122,  -1.41421354,  -1.41421354,   6.22222233
    123,  -1.84775901, -0.765366852,   6.22222233
    124,          -2.,           0.,   6.22222233
    125,  -1.84775901,  0.765366852,   6.22222233
    126,  -1.41421354,   1.41421354,   6.22222233
    127, -0.765366852,   1.84775901,   6.22222233
    128,           0.,           2.,   6.22222233
    129,  0.765366852,   1.84775901,   5.44444466
    130,   1.41421354,   1.41421354,   5.44444466
    131,   1.84775901,  0.765366852,   5.44444466
    132,           2.,           0.,   5.44444466
    133,   1.84775901, -0.765366852,   5.44444466
    134,   1.41421354,  -1.41421354,   5.44444466
    135,  0.765366852,  -1.84775901,   5.44444466
    136,           0.,          -2.,   5.44444466
    137, -0.765366852,  -1.84775901,   5.44444466
    138,  -1.41421354,  -1.41421354,   5.44444466
    139,  -1.84775901, -0.765366852,   5.44444466
    140,          -2.,           0.,   5.44444466
    141,  -1.84775901,  0.765366852,   5.44444466
    142,  -1.41421354,   1.41421354,   5.44444466
    143, -0.765366852,   1.84775901,   5.44444466
    144,           0.,           2.,   5.44444466
    145,  0.765366852,   1.84775901,   4.66666651
    146,   1.41421354,   1.41421354,   4.66666651
    147,   1.84775901,  0.765366852,   4.66666651
    148,           2.,           0.,   4.66666651
    149,   1.84775901, -0.765366852,   4.66666651
    150,   1.41421354,  -1.41421354,   4.66666651
    151,  0.765366852,  -1.84775901,   4.66666651
    152,           0.,          -2.,   4.66666651
    153, -0.765366852,  -1.84775901,   4.66666651
    154,  -1.41421354,  -1.41421354,   4.66666651
    155,  -1.84775901, -0.765366852,   4.66666651
    156,          -2.,           0.,   4.66666651
    157,  -1.84775901,  0.765366852,   4.66666651
    158,  -1.41421354,   1.41421354,   4.66666651
    159, -0.765366852,   1.84775901,   4.66666651
    160,           0.,           2.,   4.66666651
    161,  0.765366852,   1.84775901,   3.88888884
    162,   1.41421354,   1.41421354,   3.88888884
    163,   1.84775901,  0.765366852,   3.88888884
    164,           2.,           0.,   3.88888884
    165,   1.84775901, -0.765366852,   3.88888884
    166,   1.41421354,  -1.41421354,   3.88888884
    167,  0.765366852,  -1.84775901,   3.88888884
    168,           0.,          -2.,   3.88888884
    169, -0.765366852,  -1.84775901,   3.88888884
    170,  -1.41421354,  -1.41421354,   3.88888884
    171,  -1.84775901, -0.765366852,   3.88888884
    172,          -2.,           0.,   3.88888884
    173,  -1.84775901,  0.765366852,   3.88888884
    174,  -1.41421354,   1.41421354,   3.88888884
    175, -0.765366852,   1.84775901,   3.88888884
    176,           0.,           2.,   3.88888884
    177,  0.765366852,   1.84775901,   3.11111116
    178,   1.41421354,   1.41421354,   3.11111116
    179,   1.84775901,  0.765366852,   3.11111116
    180,           2.,           0.,   3.11111116
    181,   1.84775901, -0.765366852,   3.11111116
    182,   1.41421354,  -1.41421354,   3.11111116
    183,  0.765366852,  -1.84775901,   3.11111116
    184,           0.,          -2.,   3.11111116
    185, -0.765366852,  -1.84775901,   3.11111116
    186,  -1.41421354,  -1.41421354,   3.11111116
    187,  -1.84775901, -0.765366852,   3.11111116
    188,          -2.,           0.,   3.11111116
    189,  -1.84775901,  0.765366852,   3.11111116
    190,  -1.41421354,   1.41421354,   3.11111116
    191, -0.765366852,   1.84775901,   3.11111116
    192,           0.,           2.,   3.11111116
    193,  0.765366852,   1.84775901,   2.33333325
    194,   1.41421354,   1.41421354,   2.33333325
    195,   1.84775901,  0.765366852,   2.33333325
    196,           2.,           0.,   2.33333325
    197,   1.84775901, -0.765366852,   2.33333325
    198,   1.41421354,  -1.41421354,   2.33333325
    199,  0.765366852,  -1.84775901,   2.33333325
    200,           0.,          -2.,   2.33333325
    201, -0.765366852,  -1.84775901,   2.33333325
    202,  -1.41421354,  -1.41421354,   2.33333325
    203,  -1.84775901, -0.765366852,   2.33333325
    204,          -2.,           0.,   2.33333325
    205,  -1.84775901,  0.765366852,   2.33333325
    206,  -1.41421354,   1.41421354,   2.33333325
    207, -0.765366852,   1.84775901,   2.33333325
    208,           0.,           2.,   2.33333325
    209,  0.765366852,   1.84775901,   1.55555558
    210,   1.41421354,   1.41421354,   1.55555558
    211,   1.84775901,  0.765366852,   1.55555558
    212,           2.,           0.,   1.55555558
    213,   1.84775901, -0.765366852,   1.55555558
    214,   1.41421354,  -1.41421354,   1.55555558
    215,  0.765366852,  -1.84775901,   1.55555558
    216,           0.,          -2.,   1.55555558
    217, -0.765366852,  -1.84775901,   1.55555558
    218,  -1.41421354,  -1.41421354,   1.55555558
    219,  -1.84775901, -0.765366852,   1.55555558
    220,          -2.,           0.,   1.55555558
    221,  -1.84775901,  0.765366852,   1.55555558
    222,  -1.41421354,   1.41421354,   1.55555558
    223, -0.765366852,   1.84775901,   1.55555558
    224,           0.,           2.,   1.55555558
    225,  0.765366852,   1.84775901,  0.777777791
    226,   1.41421354,   1.41421354,  0.777777791
    227,   1.84775901,  0.765366852,  0.777777791
    228,           2.,           0.,  0.777777791
    229,   1.84775901, -0.765366852,  0.777777791
    230,   1.41421354,  -1.41421354,  0.777777791
    231,  0.765366852,  -1.84775901,  0.777777791
    232,           0.,          -2.,  0.777777791
    233, -0.765366852,  -1.84775901,  0.777777791
    234,  -1.41421354,  -1.41421354,  0.777777791
    235,  -1.84775901, -0.765366852,  0.777777791
    236,          -2.,           0.,  0.777777791
    237,  -1.84775901,  0.765366852,  0.777777791
    238,  -1.41421354,   1.41421354,  0.777777791
    239, -0.765366852,   1.84775901,  0.777777791
    240,           0.,           2.,  0.777777791
    241,  0.592543781,   1.33263421,  0.438061923
    242,   1.32201636,  0.673476398,  0.446998358
    243,  0.023952011,    1.4112097,   5.71862078
    244,   1.02764404,   1.00197244,   5.84977818
    245,  0.538590789,    1.3416487,    6.5554719
    246,   1.37305355,  0.432647318,   5.90237999
    247,   1.38100648,  0.447498828,   5.14878654
    248,    1.3678062, -0.415608048,   3.40291357
    249,   1.31450951, -0.507450223,   4.30228615
    250,   1.32364547,  0.542278171,   3.50176072
    251,  0.639267445,   1.31878567,   3.56927371
    252, 0.0910848603,   1.44808519,   3.88391948
    253, 0.0424146317,   1.44925046,   2.79369545
    254,   1.02190363,   1.06013525,   4.24886036
    255,  0.452091664,    1.2236445,    4.2988615
    256,   1.36671364, -0.405376852,   4.94939327
    257,   1.41135156,  0.327135742,   4.29390144
    258,  -1.22995377, -0.773381948,   4.30970478
    259,  -1.40314722,  0.117991745,   4.38306189
    260,  -1.37150955, -0.473575652,    3.5508244
    261,  -1.15989757,   0.82664901,   4.21489763
    262,  -1.35293293,  0.501089096,   3.44278359
    263, -0.690643787,   1.29298019,   3.40261793
    264,  -1.21799016,  0.779316962,   2.70577836
    265,  -1.44796062, -0.0726107135,   2.65708733
    266,   1.36451173, -0.490584344,   5.88835144
    267,  0.691396236,  -1.28379953,   5.72030163
    268,   1.36504912, -0.425274342,   6.54077625
    269, -0.728214622,  -1.24813712,   1.22325933
    270, -0.736188889,  -1.27649343,   1.94380391
    271, -0.713860631,  -1.25204122,  0.518162668
    272,  -1.32516992, -0.584925115,     1.150383
    273, -0.682602584,   1.29281616,   4.15620995
    274, -0.0181526784,  -1.43515682,   1.96040773
    275, -0.433005601,  -1.36852407,   2.62115741
    276,  0.677114069,  -1.25916994,   2.60065436
    277,  0.678624332,  -1.27003837,   1.84721196
    278,   1.32325172, -0.528628767,  0.440347254
    279,  0.631387174,  -1.25095141,  0.469581574
    280,   1.36094224, -0.432611853,    1.1480968
    281,   -1.4735688, -0.0363053568,   5.02266836
    282,  -1.21799016, -0.779317379,   5.07151937
    283,  -1.45436299, 0.00907656085,   5.84179592
    284,  -1.27132952, -0.681332648,   5.71591806
    285, -0.766656339,   1.22929621,    5.8172102
    286,   1.15123069,  0.759614587,   2.06949449
    287,   1.30441046,  0.556435287,   2.71815109
    288,  0.721030116,   1.23240185,   2.77059293
    289,   1.36920381, -0.378062487,   2.68933463
    290,  0.593369424,  -1.29214704,   3.51596355
    291, -0.503341198,   1.32989836,  0.513666093
    292,   -1.2570833,  0.681655467,  0.507824659
    293, -0.532303274,   1.31024563,   1.18383813
    294,   -1.2994318,  0.609747112,   1.23852551
    295,  -1.28326511, -0.691288054,  0.334491134
    296, -0.0363053568,   -1.4735688,    1.1985935
    297,  0.467473477,   1.32993472,   1.88918853
    298,    1.3029995,  0.650332272,   1.07347488
    299,  0.539225757,   1.32908964,    4.8494401
    300, -0.696527362,  -1.28541481,   4.35747576
    301, -0.204429686,  -1.40335429,   3.59706211
    302, -0.828842521,  -1.09426916,   3.31024098
    303, -0.0492071956,  -1.44951475,   4.32348728
    304, -0.449295521,    1.3770628,    2.0555985
    305, -0.526520312,   -1.2594564,   6.41101313
    306, 0.0726107135,  -1.44796062,   5.76883936
    307,  0.600705147,  -1.31009626,   6.54232645
    308, -0.760724008,   -1.2221458,   5.82559204
    309, -0.628399491,   1.32136369,   6.49662542
    310,  -1.30054474,    0.6800583,   6.47846794
    311,  -1.27304769, -0.724164128,   2.73844695
    312,  -1.21018183,  0.766658545,    5.8415556
    313, -0.426441818,   1.39176357,   5.16397619
    314,   1.27649081,  0.669824481,   6.47560978
    315,   1.29976344, -0.634849787,    2.0360806
    316,  0.319374323,   1.26433873,    1.1374613
    317,  -1.29545093, -0.649867117,    6.5255518
    318,  -1.25567186,  0.702433586,   2.00893879
    319,   -1.4991765,           0.,   1.94380391
    320,  -1.27649343, -0.736188889,   1.94380391
    321,  -1.25567186,  0.702433586,   5.12005043
    322, -0.0292569436,  -1.50459182,   5.07610703
    323, -0.722984672,  -1.21342492,   5.08646917
    324,  0.764546156,   -1.2279948,   1.14635158
    325,  0.810574591,   -1.1834141,   5.12005043
    326,  0.773381531,  -1.22995377,   4.30970478
    327, -0.705942273,   1.20676577,   2.72158194
*Element, type=C3D4
   1, 241, 242,  32, 226
   2, 243, 244, 113, 245
   3, 244, 246, 131, 115
   4, 244, 247, 246,  63
   5, 244, 247,  63, 130
   6, 243, 244,  63, 129
   7, 248, 249,  78,  77
   8, 248, 250,  78, 164
   9, 248, 249, 165, 164
  10, 248, 250, 164, 180
  11, 251, 252, 192, 253
  12, 251, 250, 162, 254
  13, 251,  88,  87,  80
  14, 255, 252, 251,  80
  15, 247, 256,  62,  70
  16, 247, 257, 254, 147
  17, 247,  62, 246,  63
  18, 258, 171, 259, 260
  19, 261, 259, 262,  74
  20, 259, 262, 260, 172
  21, 261, 259, 157, 173
  22, 258, 259,  74, 260
  23, 261,  73, 262, 174
  24, 262, 263, 190, 174
  25, 264, 262, 190, 189
  26, 265, 264, 262,  82
  27, 261, 262, 259, 173
  28, 266, 256, 132, 133
  29, 267, 118, 266,  53
  30, 266, 116, 268, 117
  31, 266, 246, 116, 132
  32, 117, 266, 118, 268
  33, 269, 270, 218, 217
  34, 269, 108, 271, 107
  35, 269, 272, 234, 218
  36, 269, 271, 234, 107
  37, 273, 175, 159, 160
  38, 274, 275, 270, 201
  39, 274, 276, 277,  92
  40, 274, 277, 199, 215
  41, 274, 276, 200, 199
  42, 274, 275, 276,  92
  43, 278, 242,  17, 110
  44, 278, 242, 110, 228
  45, 278, 109, 279, 230
  46, 278, 228, 280, 229
  47, 278,  29,  16,  17
  48, 278, 109, 280, 110
  49, 281, 259, 155, 156
  50, 281, 282, 139, 155
  51, 281, 282, 258,  66
  52, 281, 283, 284,  58
  53, 243,  56, 285,  64
  54, 286, 287, 194, 288
  55, 287, 289,  94, 196
  56, 286,  94, 287,  95
  57, 287,  86, 250,  87
  58, 286, 194, 287, 195
  59, 276, 289, 198,  93
  60, 276,  84, 275, 184
  61, 274, 277, 276, 199
  62, 276, 182, 290, 183
  63, 276,  85, 289,  93
  64, 276,  84, 290,  85
  65, 291, 292, 238,  20
  66, 291,  12, 292,  20
  67, 241, 291,   2, 112
  68, 291,  19,   3,   2
  69, 291, 293, 240, 239
  70, 291, 293, 239, 238
  71, 292,  21,  20,  12
  72, 292, 237,  22, 236
  73, 292, 106, 294, 236
  74, 292, 294, 238, 237
  75, 292, 294, 106, 105
  76, 292, 237,  21,  22
  77, 271, 233,  25,  26
  78, 271, 295,  24, 234
  79, 296, 233, 271, 232
  80, 271, 295,  14,  24
  81, 296, 269, 271, 233
  82, 271, 295, 234, 107
  83, 288, 297, 253, 193
  84, 297, 288, 286, 193
  85, 288, 253,  96,  88
  86, 287, 288,  87, 178
  87, 251, 253, 288,  88
  88, 241, 226, 225, 111
  89, 241,  32, 242,  18
  90, 242,  30,  31, 228
  91, 242, 298, 228, 227
  92, 242, 226, 298, 227
  93, 242,  17,  18,  31
  94, 242,  31,  30,  17
  95, 243, 299, 129,  63
  96, 259, 156, 172, 171
  97, 258, 155, 259, 171
  98, 259, 260, 171, 172
  99, 258, 260,  75, 170
 100, 258, 300, 154, 170
 101, 301, 275, 302,  84
 102, 168, 301, 303, 290
 103, 303, 301, 168, 169
 104, 288, 297,  95,  96
 105,  75, 302,  76, 300
 106, 170, 169, 302, 300
 107, 304, 224, 297, 104
 108, 305,   7,   8,  51
 109, 303, 300, 301, 169
 110, 306, 307, 120, 119
 111, 308, 306, 121, 137
 112, 308, 306,  52, 305
 113, 307, 268,  39, 118
 114, 306, 120, 305, 121
 115, 276, 199, 183, 184
 116, 309,  49, 310, 126
 117, 311, 302, 186,  91
 118, 302,  91,  84, 275
 119,  95, 297, 288, 286
 120, 200, 274, 275, 276
 121, 276, 184, 183,  84
 122, 309, 126, 310,  47
 123, 309, 310,   5,  47
 124, 243, 309, 285,  56
 125, 244, 130, 129, 114
 126, 309,  48,   5,   1
 127, 309, 285,  49, 126
 128, 309,  48, 127, 126
 129, 283, 310, 124,  50
 130, 283, 310,  50, 312
 131, 159,  72, 273, 160
 132, 310, 312, 125, 126
 133, 310, 124,  50,  45
 134, 309,   1,   5,  56
 135, 309,   5, 310,  49
 136, 310,  46,  45,   6
 137, 243, 299,  64, 313
 138, 310,  46,   6,   5
 139, 289, 182, 198, 197
 140, 314,  37, 115,  36
 141, 289, 315, 196, 197
 142, 289, 182, 248,  85
 143, 181, 289, 182, 248
 144,  94, 196, 286, 287
 145, 287, 180, 250,  86
 146, 291, 239,  20, 238
 147, 283,  58, 312,  50
 148, 241, 316, 112, 111
 149, 312, 285, 142, 126
 150, 312,  49, 285, 126
 151, 283, 310, 312, 125
 152, 282, 138, 284, 139
 153, 284,  50, 317,  51
 154, 308, 122, 284, 138
 155, 284, 122, 317, 123
 156, 305, 120,  52,  41
 157, 308, 121, 305, 122
 158, 305,  42,  41,   8
 159, 305,  42,   8,   7
 160, 306,  52, 305, 120
 161, 308, 306, 305, 121
 162, 265, 264, 318, 205
 163, 318, 319,  98,  90
 164, 265, 264,  90, 318
 165, 264, 318, 206,  89
 166, 257, 250, 164,  78
 167, 257, 250,  79, 254
 168, 257, 254,  79,  71
 169, 257, 249, 164, 148
 170, 257,  70, 249, 148
 171, 320, 311,  91,  90
 172, 247, 257, 147, 148
 173, 321, 313,  57,  65
 174, 321, 261, 157, 158
 175, 321, 281, 157, 259
 176, 321,  66, 261,  65
 177, 281, 139, 282, 284
 178, 321, 281, 259,  66
 179, 281, 283, 141, 140
 180, 322, 136, 306, 137
 181, 284, 139, 138, 123
 182, 308, 323, 137, 138
 183, 308,  59, 284,  51
 184, 322, 308, 306,  60
 185, 306, 136, 120, 121
 186, 284, 138, 122, 123
 187, 308, 137, 121, 122
 188, 103, 210, 211, 298
 189, 298, 280, 228, 212
 190, 298, 210, 211, 226
 191, 242, 111, 298, 226
 192, 298, 280, 110, 228
 193, 296, 217, 274, 270
 194, 296, 217, 233, 232
 195, 296, 324, 215, 231
 196, 296, 277, 324, 100
 197, 296, 274, 216, 215
 198, 296, 274, 215, 277
 199, 261,  65, 273, 158
 200, 261, 273,  73, 174
 201, 281,  66, 258, 259
 202, 281, 157, 259, 156
 203, 261,  66,  73,  65
 204, 321, 281,  58, 283
 205, 243, 309,  56, 128
 206, 322, 303, 153, 300
 207, 312, 141, 125, 126
 208, 321, 142, 312,  57
 209, 312, 285,  49,  57
 210, 285, 313,  57, 142
 211, 243, 143, 127, 128
 212, 285, 127, 142, 126
 213, 293,  97, 105, 112
 214, 316, 111, 225, 209
 215, 325, 326, 150, 151
 216, 326,  69, 249,  77
 217, 317, 123, 122,  44
 218, 326, 249, 166,  77
 219, 303, 326, 290,  76
 220, 326, 290, 166, 167
 221, 280, 101, 324, 214
 222, 298, 102, 280, 212
 223, 242, 228, 298, 110
 224, 280, 324, 109, 230
 225, 280, 315, 102, 101
 226, 280, 228, 213, 229
 227, 315, 277, 101, 214
 228, 280, 315, 213, 212
 229, 280, 315, 212, 102
 230, 289,  94, 315,  93
 231,  94, 196, 315, 102
 232, 286, 102, 211, 196
 233, 320, 319,  98, 272
 234, 319, 272, 219, 220
 235, 320, 203, 319, 219
 236, 265, 318,  90, 319
 237, 318, 304, 222, 206
 238, 265, 319, 320, 203
 239, 307,   9, 268,  53
 240, 253, 297, 304, 208
 241, 307, 120, 119,  41
 242, 307,  52, 120,  41
 243, 307,  41,  40,   8
 244, 267, 307, 118,  53
 245, 307,  40,   9,   8
 246, 267, 307, 306, 119
 247, 305, 317,  51, 122
 248, 305,   7,  43,  42
 249, 317, 124, 123,  45
 250, 317,  45,  44,   6
 251, 283, 123, 317, 124
 252, 317,   6,  44,   7
 253, 284,  51, 317, 122
 254, 283, 284, 317, 123
 255, 313, 159, 143, 144
 256, 300, 323, 154, 153
 257, 322,  68, 323,  60
 258, 322, 308, 323, 137
 259, 282, 323,  59, 138
 260,  22,  23,  13, 236
 261, 295, 236, 235, 106
 262, 271, 233,  26, 232
 263, 295, 106, 272, 107
 264, 295,  24, 235,  23
 265, 271, 234,  24,  25
 266, 299,  64, 313,  72
 267, 269, 234, 271, 233
 268, 295, 234, 272, 235
 269, 296, 100, 269, 270
 270, 277, 324, 214, 215
 271, 101, 214, 280, 315
 272, 310, 125, 124,  46
 273, 315, 198, 213, 197
 274, 296, 324, 277, 215
 275, 315, 277,  93, 101
 276, 296, 270, 269, 217
 277, 309, 245, 128,   4
 278, 276,  93, 277,  92
 279, 266, 133, 117, 118
 280, 322, 325, 326,  68
 281, 325, 134, 267, 135
 282, 266, 134,  61, 133
 283, 267, 306, 307,  52
 284, 267, 134, 118, 119
 285, 322, 151, 303, 326
 286, 306, 135, 119, 120
 287, 296, 100, 324, 108
 288, 300,  67, 323,  68
 289, 322, 325,  60, 267
 290, 308, 323,  59,  60
 291, 322, 300, 153, 323
 292, 322, 325, 135, 151
 293, 322, 326, 325, 151
 294, 321, 141, 281, 283
 295, 281, 282, 155, 258
 296, 281, 140, 156, 155
 297, 281, 284, 283, 139
 298, 282,  67, 323, 154
 299, 282, 258,  67, 154
 300, 322,  68, 300, 323
 301, 308, 323, 138,  59
 302, 283,  50, 284,  58
 303, 282,  58, 284,  59
 304, 321, 312,  58,  57
 305, 321, 283, 312, 141
 306, 283, 139, 284, 123
 307, 283, 312, 141, 125
 308, 283, 139, 123, 124
 309, 283, 140, 124, 125
 310, 258, 155, 171, 170
 311, 322, 135, 325, 267
 312, 303, 300,  68,  76
 313, 301, 185, 275, 184
 314, 300,  75, 302, 170
 315, 258, 300,  67, 154
 316, 265, 320,  90, 311
 317,  23,  13, 236, 295
 318, 320, 202, 311, 203
 319, 265, 260, 311,  82
 320, 275, 202, 201, 186
 321, 186,  91, 202, 311
 322,  91, 302, 186, 275
 323, 327, 263,  81,  88
 324, 264, 190, 327, 206
 325, 327, 263,  88, 253
 326, 327, 263, 253, 191
 327, 327, 263, 191, 190
 328, 292, 237, 238,  21
 329, 303, 168, 152, 153
 330, 159,  65, 313, 158
 331, 321, 142, 313, 158
 332, 243, 285, 313,  64
 333, 243, 313, 143, 144
 334, 304, 297,  96, 104
 335, 313, 299,  72, 160
 336, 313, 159, 144, 160
 337, 313,  72,  64,  57
 338, 285, 313, 142, 143
 339, 272, 294, 106, 236
 340, 320, 319, 272, 219
 341, 269, 233, 217, 218
 342, 320, 272, 218, 219
 343, 269, 272, 218,  99
 344, 295, 107, 272, 234
 345, 254, 299, 145, 255
 346, 269, 234, 272, 107
 347, 265, 320, 311, 203
 348, 319, 220, 219, 204
 349, 264, 318,  89,  90
 350, 320, 270,  91, 202
 351, 320, 270, 202, 218
 352, 320, 270, 218,  99
 353, 327, 304,  89, 206
 354, 327, 304, 206, 207
 355, 327, 207, 253, 304
 356, 289, 196, 315,  94
 357, 275, 185, 200, 184
 358, 327,  96, 253,  88
 359, 273, 175, 263, 174
 360, 325, 256, 149,  69
 361, 325, 256,  61, 134
 362, 256, 249,  69,  70
 363, 256, 148, 132, 133
 364, 247,  62, 256, 132
 365, 256, 148, 249,  70
 366, 264, 190, 206, 205
 367, 265, 205, 318, 319
 368, 265, 264,  82,  90
 369, 265, 262, 264, 189
 370, 264, 262,  81, 190
 371, 248, 182, 181, 166
 372,  85, 248,  77, 182
 373, 303, 168, 290, 167
 374, 290, 184, 183, 168
 375, 301, 184, 290, 168
 376, 248, 166, 165,  77
 377, 303, 326, 167, 290
 378, 276,  85, 290, 182
 379, 265, 203, 311, 187
 380, 265,  82, 311,  90
 381, 265, 264, 205, 189
 382, 264,  81, 262,  82
 383, 264, 206, 327,  89
 384, 265, 204, 319, 203
 385, 265, 205, 319, 204
 386, 311,  82, 260,  83
 387, 256, 134, 133,  61
 388,  69, 325, 150, 149
 389, 322, 152, 151, 136
 390, 322, 303, 151, 152
 391, 322, 306, 136, 135
 392, 325, 326,  69, 150
 393, 303, 326,  76,  68
 394, 325, 267,  61,  60
 395, 245, 243, 128, 113
 396, 245, 244,  55,  56
 397,  56, 245, 243, 128
 398, 244, 314, 245,  55
 399, 309, 245,   1,  56
 400, 245,   1,  11,  34
 401, 272, 235, 234, 219
 402, 292,  21,  12,  13
 403, 245, 314,  35,  11
 404, 245,  55,  11,   1
 405, 253, 304, 207, 208
 406, 286, 193, 288, 194
 407, 310, 124,  45,  46
 408, 251, 288,  87,  88
 409, 288,  88,  95,  87
 410, 253, 193, 297, 208
 411, 288,  96, 253, 297
 412, 327, 304, 253,  96
 413, 311,  83,  90,  82
 414, 262, 189, 188, 173
 415, 265, 311, 260, 187
 416, 260,  75, 302,  83
 417, 289,  86,  94,  93
 418, 262, 188, 172, 173
 419, 260, 187, 171, 172
 420, 262, 260,  82,  74
 421, 251, 250, 178, 162
 422, 251, 250,  79,  87
 423, 248, 250, 180,  86
 424, 297,  95,  96, 103
 425, 251, 162, 178, 177
 426, 251, 250, 254,  79
 427, 327,  81,  89,  96
 428, 250, 254, 163, 162
 429, 248,  78, 250,  86
 430, 300,  67,  68,  75
 431, 282, 323, 138, 154
 432, 303, 153, 300, 169
 433, 322, 267, 306, 135
 434, 325,  69, 326,  68
 435, 301, 303, 290,  76
 436, 303, 167, 326, 151
 437, 303, 168, 167, 152
 438, 321, 261, 158,  65
 439, 263, 252,  80,  88
 440, 263, 190, 175, 191
 441, 261, 158, 173, 157
 442,  65, 273, 159,  72
 443, 261, 173, 158, 174
 444, 273,  73, 263,  80
 445,  72,  65, 313, 159
 446, 273, 174, 159, 175
 447, 275,  91, 202, 186
 448, 145, 254, 161, 146
 449, 254, 147, 163, 162
 450, 257, 254, 147, 163
 451, 255, 161, 251, 252
 452, 255, 145, 252, 160
 453, 254, 162, 146, 147
 454, 255, 254,  71,  79
 455, 257,  78,  71,  79
 456, 280, 214, 324, 230
 457, 296, 279, 231, 232
 458, 296, 271, 269, 108
 459, 324, 230, 279, 109
 460, 214, 280, 315, 213
 461, 296, 269, 100, 108
 462, 296, 279, 324, 231
 463, 277, 101, 324, 100
 464, 266,  54, 268, 116
 465, 304, 293, 104,  97
 466, 318,  89, 304, 206
 467, 327,  81, 263, 190
 468, 318, 222, 304,  97
 469, 263,  88, 253, 252
 470, 304, 293, 222, 223
 471, 327, 191, 207, 206
 472, 278,  28, 279,  16
 473, 278,  16, 279, 109
 474, 324, 231, 279, 230
 475, 296, 279, 232, 108
 476, 279,  26, 232,  15
 477, 279, 232,  26,  27
 478, 324, 109, 279, 108
 479, 279,  27,  15,  16
 480, 268, 314,  37, 116
 481, 268, 314,  10,  37
 482, 293, 294,  97, 222
 483, 307, 268, 118,  53
 484, 293, 294, 238, 105
 485, 268,   9,  39,  38
 486, 268,   9,  10,  53
 487, 268, 116,  38, 117
 488, 182, 248,  77, 166
 489, 248,  85,  78,  86
 490, 249, 166, 165, 150
 491, 326, 166, 249, 150
 492, 247, 256,  70, 148
 493, 257, 163, 148, 164
 494, 244, 247, 130, 131
 495, 249,  77,  70,  78
 496, 249,  69, 150, 149
 497, 256, 249, 148, 149
 498, 304,  97, 104,  89
 499, 316, 293, 240, 112
 500, 293, 224, 240, 239
 501, 316, 293, 112, 104
 502, 293, 294, 105,  97
 503, 293, 223, 239, 238
 504, 293, 294, 222, 238
 505, 304, 293, 224, 104
 506, 314, 246, 115, 116
 507, 244, 246, 314,  55
 508, 244, 113, 245, 114
 509, 245, 314, 114,  35
 510, 314,  37,  36,  10
 511, 245,  11,  35,  34
 512, 314,  36,  11,  10
 513, 287,  87, 288,  95
 514, 287, 178, 250, 179
 515, 102, 196, 315, 212
 516, 102, 211, 196, 212
 517, 286, 211, 210, 195
 518, 286, 194, 195, 210
 519, 252, 273,  72, 160
 520, 196, 286, 287, 195
 521, 247, 257, 148,  70
 522, 277, 100,  92,  93
 523, 244, 245, 314, 114
 524, 244, 314, 115, 114
 525, 266, 132, 117, 133
 526, 266, 246,  54, 116
 527, 244, 246, 247, 131
 528, 244, 246,  55,  63
 529, 246, 131, 115, 116
 530, 266,  62, 246, 132
 531, 292, 238, 294, 105
 532, 318, 294, 222,  97
 533, 291,  20,  19,  12
 534, 318, 294, 319, 221
 535, 292,  12, 106,  13
 536, 272, 235, 219, 220
 537, 319, 272, 220,  98
 538, 272, 235, 236, 106
 539, 320, 272,  99, 218
 540, 320, 203, 219, 218
 541, 274, 201, 270, 217
 542, 259, 172, 156, 157
 543, 274, 275, 201, 200
 544, 296, 270, 274, 100
 545, 320, 311, 202,  91
 546, 275,  92, 270,  91
 547, 295, 235, 272, 106
 548, 270, 218, 217, 202
 549, 287, 180, 196, 195
 550, 327, 191, 253, 207
 551, 287,  94, 289,  86
 552, 252, 192, 161, 251
 553, 250, 163, 179, 178
 554, 288,  95,  88,  96
 555, 303, 301, 300,  76
 556, 288, 193, 253, 177
 557, 257, 164, 250, 163
 558, 285, 313,  64,  57
 559, 251, 161, 254, 162
 560, 261, 174, 262, 173
 561, 273, 174, 158, 159
 562, 299, 160, 144, 129
 563, 311,  83, 302,  91
 564,  96, 253, 297, 304
 565, 160, 299,  72, 255
 566, 271,  25,  24,  14
 567, 286, 287, 288,  95
 568, 296, 232, 271, 108
 569, 289,  85,  86,  93
 570, 255,  80, 251,  79
 571, 248,  77,  78,  85
 572, 257, 249,  78, 164
 573, 273, 263, 252,  80
 574, 258, 260, 170, 171
 575, 192, 191, 252, 176
 576, 175, 160, 252, 176
 577, 247, 147, 254, 146
 578, 166, 182, 290,  77
 579, 287, 289, 180,  86
 580, 245,  56,  55,   1
 581, 298, 103, 110, 102
 582, 291, 292, 105, 238
 583, 315, 197, 213, 212
 584, 319, 205, 221, 220
 585, 318,  98, 319, 294
 586, 292, 294, 237, 236
 587, 285,  57,  64,  49
 588, 242,  31, 227, 228
 589, 245, 314,  11,  55
 590, 243, 299, 313, 144
 591, 294, 221, 237, 236
 592, 287, 179, 194, 178
 593, 249, 149, 165, 164
 594, 247,  63,  71,  70
 595, 291, 293, 238, 105
 596, 250, 163, 164, 179
 597, 250, 163, 178, 162
 598, 260, 170, 171, 186
 599, 311,  83, 260, 302
 600, 316, 104, 111, 103
 601, 271,  14, 295, 107
 602, 248, 249,  77, 165
 603, 296, 100, 274, 277
 604, 296, 269, 233, 217
 605, 271,  14,  15,  25
 606, 278,  29, 229, 230
 607, 296, 231, 215, 216
 608, 279,  15,  27,  26
 609, 324, 231, 230, 215
 610, 179, 287, 180, 250
 611, 278,  28,  29, 230
 612, 278, 110,  16, 109
 613, 280, 214, 229, 213
 614, 278,  16,  29,  28
 615, 192, 252, 191, 253
 616, 268,  10, 314,  54
 617, 244, 113, 114, 129
 618, 242, 111,  17, 110
 619, 294, 222, 237, 221
 620, 250,  86,  78,  79
 621, 278,  17, 242,  30
 622, 257, 148, 163, 147
 623, 251, 288, 253, 177
 624, 241, 242, 111,  18
 625, 241,  18,  33,  32
 626, 293, 223, 238, 222
 627, 185, 170, 302, 186
 628, 292, 236,  22,  13
 629, 264,  90,  89,  82
 630, 304, 293,  97, 222
 631, 291, 105, 292,  12
 632, 302, 170, 185, 169
 633, 302,  76, 300, 301
 634, 294, 221, 236, 220
 635, 301,  84, 302,  76
 636, 290,  77,  85,  84
 637, 318, 221, 319, 205
 638, 295, 236,  23, 235
 639, 272, 220, 236, 235
 640, 272, 234, 218, 219
 641, 318, 294,  97,  98
 642, 272, 294, 236, 220
 643, 320, 272,  98,  99
 644, 269, 218, 234, 233
 645, 270, 202, 217, 201
 646, 274, 217, 216, 201
 647, 296, 216, 232, 231
 648, 241,  33, 226,  32
 649, 277, 214, 324, 101
 650, 269,  99, 270, 100
 651, 277, 215, 214, 199
 652, 296, 232, 216, 217
 653, 324, 230, 214, 215
 654, 109, 230, 278, 280
 655, 280, 213, 228, 212
 656, 315, 277, 198,  93
 657, 315, 277, 214, 198
 658, 260,  75, 170, 302
 659, 278, 110, 280, 228
 660, 242,  32, 227,  31
 661, 269, 272,  99, 107
 662, 315,  94, 102, 101
 663, 300, 169, 154, 170
 664, 313, 158, 142, 143
 665, 241,   3, 225,  33
 666, 262,  81, 263,  73
 667, 298, 212, 228, 227
 668, 246,  55,  63,  62
 669, 299,  63, 130, 129
 670, 304, 224, 208, 297
 671, 319, 219, 203, 204
 672, 320, 218, 202, 203
 673, 320,  91, 270,  99
 674, 311, 203, 202, 187
 675, 269, 218, 270,  99
 676, 275, 270, 202,  91
 677, 274, 216, 200, 201
 678, 274, 277, 100,  92
 679, 276, 277, 198, 199
 680, 264, 189, 190, 205
 681, 315, 198, 214, 213
 682, 276, 199, 198, 183
 683, 103, 102, 298, 211
 684, 276, 198, 277,  93
 685, 198, 315, 289, 197
 686, 315, 197, 212, 196
 687, 291,   2, 112, 105
 688, 257,  79, 250,  78
 689, 263,  88,  73,  81
 690, 315,  93,  94, 101
 691, 247, 246,  62, 132
 692, 250,  87,  86,  79
 693, 299, 247, 130,  63
 694, 248, 249, 164,  78
 695, 160, 299, 255, 145
 696, 264, 327, 190,  81
 697, 319, 220, 294,  98
 698, 319, 220, 204, 205
 699, 264, 318, 205, 206
 700, 241,   3, 240, 225
 701, 265, 205, 204, 189
 702, 318, 294, 221, 222
 703, 321, 312, 142, 141
 704,  82, 262, 265, 260
 705, 271, 233, 234,  25
 706, 274, 270, 275,  92
 707, 286, 194, 209, 193
 708, 318,  97,  90,  98
 709, 275,  91,  84,  92
 710, 276, 184, 200, 199
 711, 276, 275,  84,  92
 712, 290, 168, 183, 167
 713, 301, 169, 185, 184
 714, 274, 215, 199, 200
 715, 286, 196, 211, 195
 716, 280, 230, 229, 214
 717, 282, 258,  66,  67
 718, 276, 182, 289,  85
 719, 290, 183, 182, 167
 720, 102, 286, 211, 103
 721, 248, 166, 181, 165
 722, 289, 181, 196, 180
 723, 266, 132, 116, 117
 724, 279,  28, 230, 231
 725, 253, 193, 208, 177
 726, 273,  65,  80,  72
 727, 256,  62,  70,  69
 728, 264, 327,  81,  89
 729, 262, 189, 173, 174
 730, 291, 112, 293, 105
 731, 211, 286, 210, 103
 732, 293, 239, 223, 224
 733, 286, 103, 297, 209
 734, 248,  86, 289,  85
 735, 261, 273, 174, 158
 736, 259, 173, 262, 172
 737, 263,  80,  73,  88
 738, 262, 265, 260, 188
 739, 280, 102, 110, 109
 740, 281, 258, 155, 259
 741, 263, 190, 174, 175
 742, 260,  74,  75,  82
 743, 260, 172, 188, 187
 744, 314,  10,  11,  54
 745, 252, 191, 253, 263
 746, 282, 258, 154, 155
 747, 259, 173, 172, 157
 748, 253, 208, 192, 177
 749, 303, 169, 168, 153
 750, 169, 302, 300, 301
 751, 267, 307, 119, 118
 752, 300, 154, 169, 153
 753, 223, 304, 293, 224
 754, 290, 183, 184,  84
 755, 301,  76, 290,  84
 756, 326, 166, 290,  77
 757, 290, 182, 166, 167
 758, 303, 152, 167, 151
 759,  75, 302,  83,  76
 760,  77, 182, 290,  85
 761, 296, 274, 217, 216
 762, 321, 157, 141, 142
 763, 326, 167, 166, 151
 764, 249, 150, 165, 149
 765, 326,  77, 290,  76
 766, 276, 183, 290,  84
 767, 289, 197, 196, 181
 768, 248, 164, 165, 180
 769, 282,  59,  66,  58
 770, 248, 181, 180, 165
 771, 265, 188, 262, 189
 772, 263, 252, 191, 175
 773, 287, 289, 196, 180
 774, 252, 191, 175, 176
 775, 176, 160, 252, 145
 776, 192, 161, 251, 177
 777, 176, 192, 161, 252
 778, 262, 174, 190, 189
 779, 251,  79,  80,  87
 780, 249,  69,  70,  77
 781, 327, 190, 191, 206
 782, 244, 314, 246, 115
 783, 247, 147, 146, 131
 784, 261, 273,  65,  73
 785, 282, 284, 138,  59
 786, 158, 273, 159,  65
 787, 327, 304,  96,  89
 788, 320, 319,  90,  98
 789, 321, 261,  66, 259
 790, 273, 174, 263,  73
 791, 281, 157, 156, 141
 792, 258, 170, 154, 155
 793, 295, 235,  24, 234
 794, 258, 259,  66,  74
 795, 255,  79, 251, 254
 796, 321, 283,  58, 312
 797, 301, 290, 184,  84
 798, 322, 153, 152, 137
 799, 323, 154, 153, 138
 800, 325,  61,  69,  68
 801, 301, 275,  84, 184
 802, 274, 200, 216, 215
 803, 279, 232,  27, 231
 804, 322, 136, 151, 135
 805, 295,  13, 106, 107
 806, 322, 303, 300,  68
 807, 322, 137, 323, 153
 808, 249, 164, 148, 149
 809, 149, 325, 150, 134
 810, 276,  93,  92,  85
 811, 247, 254, 257,  71
 812, 299, 247,  63,  71
 813, 251, 288, 178,  87
 814, 299,  63,  64,  71
 815, 254, 146, 162, 161
 816, 248, 289, 180, 181
 817, 257,  70,  71,  78
 818, 245,  35, 114, 113
 819, 247, 130, 131, 146
 820, 160, 252, 255,  72
 821, 266,  61,  53,  54
 822, 309,  49, 285,  56
 823, 262, 263, 174,  73
 824, 317,  45, 123,  44
 825, 321, 158, 157, 142
 826, 243, 313, 285, 143
 827, 273,  73,  80,  65
 828, 321, 281, 141, 157
 829, 321, 158, 313,  65
 830, 258, 300,  75,  67
 831, 259, 156, 171, 155
 832, 260, 187, 186, 171
 833, 260, 186, 302, 170
 834, 161, 252, 145, 176
 835, 308, 138, 284,  59
 836, 260,  82,  75,  83
 837, 322, 308,  60, 323
 838, 308,  51, 284, 122
 839, 283, 310, 125, 124
 840, 301, 169, 302, 185
 841, 300,  76,  75,  68
 842, 308, 305,  52,  51
 843, 326, 166, 150, 151
 844, 322, 303,  68, 326
 845, 258,  75, 300, 170
 846, 249, 165, 166,  77
 847, 266, 118, 268,  53
 848, 243, 244, 129, 113
 849, 316, 293, 224, 240
 850, 314, 246, 116,  54
 851, 247, 147, 131, 132
 852, 267,  61, 266, 134
 853, 256, 249, 149,  69
 854, 146, 299, 145, 254
 855, 314,  35,  36, 114
 856, 241, 316, 111, 225
 857, 294, 222, 238, 237
 858, 304, 224, 223, 208
 859, 316, 297, 209, 224
 860, 288, 178, 194, 193
 861, 243, 143, 128, 144
 862, 128, 127, 243, 309
 863, 287, 250, 178,  87
 864, 245, 113,  34,  35
 865, 309, 127,   4, 128
 866, 298, 103, 111, 110
 867, 309, 245,   4,   1
 868, 285, 143, 142, 127
 869, 282,  59, 323,  67
 870, 281, 156, 140, 141
 871, 283, 317, 284,  50
 872, 281, 140, 155, 139
 873, 261, 259,  74,  66
 874, 321, 261, 259, 157
 875, 282, 155, 154, 139
 876,  74, 259, 262, 260
 877, 323, 138, 153, 137
 878, 305, 122, 121,  43
 879, 322, 303, 152, 153
 880, 286, 193, 209, 297
 881, 267,  60, 306,  52
 882, 306, 120, 136, 135
 883, 308, 122, 138, 137
 884, 266, 256,  61,  62
 885, 267, 135, 134, 119
 886, 267, 307,  53,  52
 887, 322, 325,  68,  60
 888, 305, 317,  43,   7
 889, 325, 151, 150, 135
 890, 322, 267,  60, 306
 891, 268, 117,  38,  39
 892, 322, 308, 137, 306
 893, 266, 134, 133, 118
 894, 196, 286, 102,  94
 895, 288, 177, 178, 193
 896, 193, 209, 297, 224
 897, 161, 145, 252, 255
 898, 243, 128, 113, 144
 899, 255, 299,  71, 254
 900, 251, 177, 253, 192
 901, 255,  71, 299,  72
 902, 314, 246,  54,  55
 903, 255,  79,  72,  80
 904, 251, 288, 177, 178
 905, 299, 247,  71, 254
 906, 251,  80, 252,  88
 907, 321,  57, 313, 142
 908, 251, 177, 161, 162
 909, 309,   4,  48,   1
 910, 312, 142, 285,  57
 911, 245,  34,   4,   1
 912, 255,  72,  79,  71
 913, 310,  47, 125,  46
 914, 317,  45,   6,  50
 915, 310,   5,   6,  49
 916, 317,  44,  43,   7
 917, 310,  50,  49,   6
 918, 283, 124, 317,  50
 919, 308, 122, 305,  51
 920, 305,   8,  41,  52
 921, 322, 152, 136, 137
 922, 307,  41,   8,  52
 923, 307,  40,  39,   9
 924, 305,  52,  51,   8
 925, 307,   9,  53,  52
 926, 309,  47,   5,  48
 927, 299, 129, 130, 145
 928, 309, 127,  48,   4
 929, 268,  38, 116,  37
 930, 248, 289,  86, 180
 931, 244, 115, 131, 130
 932, 314,  37, 116, 115
 933, 314,  36, 115, 114
 934, 295,  13,  14,  23
 935, 299, 247, 146, 130
 936, 266, 246,  62,  54
 937, 247, 132, 256, 148
 938, 241,   2,  33,  18
 939, 241, 240, 291, 112
 940, 287, 194, 288, 178
 941, 252,  88, 253, 251
 942, 304, 207, 223, 222
 943, 299, 145, 160, 129
 944, 278, 242, 228,  30
 945, 251, 250,  87, 178
 946, 242,  18,  17, 111
 947, 230, 278, 280, 229
 948, 241, 291, 240,   3
 949, 301, 168, 169, 184
 950, 279,  28,  27,  16
 951, 278,  30,  29,  17
 952, 279, 232, 108,  15
 953, 278, 230, 279,  28
 954, 271,  14, 108,  15
 955, 276, 198, 182, 183
 956, 276, 275, 200, 184
 957, 271, 232,  26,  15
 958, 289, 197, 181, 182
 959, 255, 251, 161, 254
 960, 275, 201, 185, 186
 961, 273, 175, 160, 252
 962, 241, 291,   3,   2
 963, 271,  15, 108, 232
 964, 265, 320, 319,  90
 965, 295, 236, 106,  13
 966, 271,  14, 107, 108
 967, 292, 236,  13, 106
 968, 319, 221, 294, 220
 969, 291,  19,   2,  12
 970, 298, 227, 211, 212
 971,  72, 252, 255,  80
 972, 286, 103,  95, 297
 973, 241, 316, 240, 112
 974, 275, 270, 201, 202
 975, 276, 198, 289, 182
 976, 271,  15,  26,  25
 977, 277, 101, 100,  93
 978, 272, 294,  98, 106
 979, 292,  12, 105, 106
 980, 272, 106,  98,  99
 981, 291,  20, 239,  19
 982, 291, 105,  12,   2
 983, 241,  18, 112,   2
 984, 242,  31,  18,  32
 985, 241, 111, 242, 226
 986, 280, 324, 101, 109
 987, 286, 210, 209, 194
 988, 287, 180, 195, 179
 989, 295, 107,  14,  13
 990, 279, 109,  16,  15
 991, 269, 107,  99, 100
 992, 324, 108, 100, 101
 993, 241, 240, 316, 225
 994, 279,  28, 231,  27
 995, 265, 188, 203, 187
 996, 298, 280, 102, 110
 997, 272, 107, 106,  99
 998, 316, 224, 104, 297
 999, 294,  98, 106, 105
1000, 255, 254, 161, 145
1001, 292,  13,  22,  21
1002, 277, 214, 198, 199
1003, 242, 298, 111, 110
1004, 280, 101, 102, 109
1005, 241, 111, 112,  18
1006, 278,  17,  16, 110
1007, 279,  15, 108, 109
1008, 265, 204, 203, 188
1009, 270,  99,  92, 100
1010, 274, 100, 270,  92
1011, 258,  75, 260,  74
1012, 311, 202, 186, 187
1013, 262, 190, 263,  81
1014, 265, 204, 188, 189
1015, 256, 149, 133, 134
1016, 292, 238,  20,  21
1017, 225, 226, 210, 111
1018, 272,  98, 294, 220
1019, 318, 206, 222, 221
1020, 193, 224, 297, 208
1021, 286, 210, 103, 209
1022, 111, 210, 225, 209
1023, 241,  33,   2,   3
1024, 324, 101, 109, 108
1025, 278,  30, 229,  29
1026, 247, 246, 132, 131
1027, 211, 102, 298, 212
1028, 295,  23,  14,  24
1029, 269, 108, 107, 100
1030,  83, 302,  91,  84
1031, 270,  91,  92,  99
1032, 320,  90,  91,  98
1033, 302, 186, 260, 311
1034, 291, 240,  19, 239
1035, 286, 102,  95, 103
1036, 294, 105,  97,  98
1037, 318,  89,  90,  97
1038, 265, 187, 260, 188
1039, 311,  83,  91,  90
1040, 287,  87,  94,  86
1041, 316, 293, 104, 224
1042, 253, 192, 207, 191
1043, 287, 179, 195, 194
1044, 273, 252, 263, 175
1045, 301, 302, 275, 185
1046, 293,  97, 112, 104
1047, 327,  88,  81,  96
1048, 318, 221, 205, 206
1049, 318, 304,  89,  97
1050, 103, 210, 111, 209
1051, 286, 102,  94,  95
1052, 316, 240, 224, 209
1053, 291, 240, 293, 112
1054, 320,  99,  98,  91
1055, 250, 164, 180, 179
1056, 325, 267, 134,  61
1057, 287,  87,  95,  94
1058,  76, 302,  83,  84
1059, 291,   3,  19, 240
1060, 325, 150, 134, 135
1061, 186, 260, 311, 187
1062, 304, 222, 206, 207
1063, 264,  82,  89,  81
1064, 262,  81,  74,  82
1065, 296, 324, 279, 108
1066, 253, 208, 207, 192
1067, 313,  72,  57,  65
1068, 304, 223, 207, 208
1069,  93, 198, 315, 289
1070, 244, 243,  56, 245
1071, 276,  84,  85,  92
1072,  56, 244,  55,  63
1073, 326, 150, 249,  69
1074, 134, 256, 149, 325
1075, 266,  61,  54,  62
1076, 275, 186, 185, 302
1077, 275, 201, 200, 185
1078, 262,  73,  74,  81
1079, 261,  74,  73,  66
1080, 297, 103,  96, 104
1081, 261, 262,  73,  74
1082, 281, 283, 140, 139
1083, 262, 260, 172, 188
1084, 310,  50, 312,  49
1085, 310, 312, 126,  49
1086, 243, 285, 127, 143
1087, 127, 243, 309, 285
1088, 285,  49,  64,  56
1089,  63, 243,  56, 244
1090, 245, 113, 128,  34
1091, 314,  54,  11,  55
1092, 299, 247, 254, 146
1093, 326,  68,  69,  76
1094, 316, 297, 104, 103
1095, 247,  63,  70,  62
1096,  80, 273,  72, 252
1097, 257,  78, 249,  70
1098, 266,  61, 256, 133
1099, 306, 137, 136, 121
1100, 305,  43, 317, 122
1101, 307, 119, 118,  40
1102, 323,  67,  60,  68
1103, 247, 257,  70,  71
1104, 282,  66,  59,  67
1105, 300, 323,  67, 154
1106, 258,  74,  66,  67
1107, 283, 141, 140, 125
1108, 321,  65,  58,  66
1109, 281, 282,  58, 284
1110, 247, 132, 148, 147
1111, 299, 160, 313, 144
1112, 299, 145, 130, 146
1113, 243, 299, 144, 129
1114, 257, 250, 254, 163
1115, 256,  69,  61,  62
1116, 310, 126, 125,  47
1117, 246,  55,  62,  54
1118, 246, 132, 131, 116
1119,  72, 160, 159, 313
1120, 256, 148, 133, 149
1121, 325,  68,  60,  61
1122, 268,  39, 118, 117
1123, 290,  84,  76,  77
1124, 266,  53, 268,  54
1125, 267,  60,  52,  53
1126, 326,  69,  77,  76
1127, 305,  43, 121,  42
1128, 306, 120, 307,  52
1129, 243,  63,  56,  64
1130, 305,  51, 317,   7
1131, 312,  57,  50,  58
1132, 283, 124, 140, 139
1133, 284,  58,  50,  51
1134, 321,  57,  58,  65
1135, 313, 143, 159, 158
1136, 298, 226, 211, 227
1137, 309, 128, 245,  56
1138, 316, 225, 240, 209
1139, 268, 314, 116,  54
1140, 304,  89, 104,  96
1141, 244,  63, 129, 130
1142, 309,  47,  48, 126
1143, 314,  36,  35,  11
1144, 312, 126, 142, 141
1145, 268,  54,  53,  10
1146, 312,  49,  50,  57
1147, 317, 122,  43,  44
1148, 210, 111, 298, 103
1149, 316, 103, 111, 209
1150, 268,  38,  37,  10
1151, 243, 144, 113, 129
1152, 267,  53,  61,  60
1153, 268,  38,  10,   9
1154, 308,  59,  52,  60
1155, 316, 103, 209, 297
1156, 307,  39, 268,   9
1157, 308,  51,  52,  59
1158, 307,  52,   8,   9
1159, 325,  61, 256,  69
1160, 323,  60,  67,  59
1161, 267, 266, 118, 134
1162, 316, 111, 104, 112
1163, 307,  41, 119,  40
1164, 305, 120,  41,  42
1165, 242,  32, 226, 227
1166, 317,   7,  50,   6
1167, 278,  30, 228, 229
1168, 307, 118,  39,  40
1169, 308,  52, 306,  60
1170, 241,  33, 225, 226
1171, 309, 285, 126, 127
1172, 226, 111, 298, 210
1173, 282, 154, 138, 139
1174, 267, 119, 306, 135
1175, 305, 121, 120,  42
1176, 317, 124,  45,  50
1177, 281,  58, 282,  66
1178, 267,  53, 266,  61
1179, 245, 128,   4,  34
1180, 310,   5,  47,  46
1181, 310,   6,  45,  50
1182, 317,   7,  51,  50
1183, 321, 281,  66,  58
1184, 243, 299,  63,  64
1185, 309,  49,  56,   5
1186, 284,  51,  59,  58
1187, 266, 132, 256,  62
1188, 244, 130, 114, 115
1189, 258,  74,  67,  75
1190, 299,  72,  71,  64
*Nset, nset=Set-1, generate
   1,  327,    1
*Elset, elset=Set-1, generate
    1,  1190,     1
** Section: Section-1
*Solid Section, elset=Set-1, material=Material-1
,
*End Instance
**  
*Instance, name=Part-2-1, part=Part-2
*Node
      1,           0.,           1.,           0.
      2,           0.,           1.,           7.
      3, -0.707106769,  0.707106769,           0.
      4,          -1.,           0.,           0.
      5, -0.707106769, -0.707106769,           0.
      6,           0.,          -1.,           0.
      7,  0.707106769, -0.707106769,           0.
      8,           1.,           0.,           0.
      9,  0.707106769,  0.707106769,           0.
     10,  0.707106769,  0.707106769,           7.
     11,           1.,           0.,           7.
     12,  0.707106769, -0.707106769,           7.
     13,           0.,          -1.,           7.
     14, -0.707106769, -0.707106769,           7.
     15,          -1.,           0.,           7.
     16, -0.707106769,  0.707106769,           7.
     17, -0.158106357,  0.325598449,           0.
     18, -0.306635022, -0.308590502,           0.
     19,  0.324912041, -0.163832009,           0.
     20,  0.707106769,  0.707106769,   6.22222233
     21,           1.,           0.,   6.22222233
     22,  0.707106769, -0.707106769,   6.22222233
     23,           0.,          -1.,   6.22222233
     24, -0.707106769, -0.707106769,   6.22222233
     25,          -1.,           0.,   6.22222233
     26, -0.707106769,  0.707106769,   6.22222233
     27,           0.,           1.,   6.22222233
     28,  0.707106769,  0.707106769,   5.44444466
     29,           1.,           0.,   5.44444466
     30,  0.707106769, -0.707106769,   5.44444466
     31,           0.,          -1.,   5.44444466
     32, -0.707106769, -0.707106769,   5.44444466
     33,          -1.,           0.,   5.44444466
     34, -0.707106769,  0.707106769,   5.44444466
     35,           0.,           1.,   5.44444466
     36,  0.707106769,  0.707106769,   4.66666651
     37,           1.,           0.,   4.66666651
     38,  0.707106769, -0.707106769,   4.66666651
     39,           0.,          -1.,   4.66666651
     40, -0.707106769, -0.707106769,   4.66666651
     41,          -1.,           0.,   4.66666651
     42, -0.707106769,  0.707106769,   4.66666651
     43,           0.,           1.,   4.66666651
     44,  0.707106769,  0.707106769,   3.88888884
     45,           1.,           0.,   3.88888884
     46,  0.707106769, -0.707106769,   3.88888884
     47,           0.,          -1.,   3.88888884
     48, -0.707106769, -0.707106769,   3.88888884
     49,          -1.,           0.,   3.88888884
     50, -0.707106769,  0.707106769,   3.88888884
     51,           0.,           1.,   3.88888884
     52,  0.707106769,  0.707106769,   3.11111116
     53,           1.,           0.,   3.11111116
     54,  0.707106769, -0.707106769,   3.11111116
     55,           0.,          -1.,   3.11111116
     56, -0.707106769, -0.707106769,   3.11111116
     57,          -1.,           0.,   3.11111116
     58, -0.707106769,  0.707106769,   3.11111116
     59,           0.,           1.,   3.11111116
     60,  0.707106769,  0.707106769,   2.33333325
     61,           1.,           0.,   2.33333325
     62,  0.707106769, -0.707106769,   2.33333325
     63,           0.,          -1.,   2.33333325
     64, -0.707106769, -0.707106769,   2.33333325
     65,          -1.,           0.,   2.33333325
     66, -0.707106769,  0.707106769,   2.33333325
     67,           0.,           1.,   2.33333325
     68,  0.707106769,  0.707106769,   1.55555558
     69,           1.,           0.,   1.55555558
     70,  0.707106769, -0.707106769,   1.55555558
     71,           0.,          -1.,   1.55555558
     72, -0.707106769, -0.707106769,   1.55555558
     73,          -1.,           0.,   1.55555558
     74, -0.707106769,  0.707106769,   1.55555558
     75,           0.,           1.,   1.55555558
     76,  0.707106769,  0.707106769,  0.777777791
     77,           1.,           0.,  0.777777791
     78,  0.707106769, -0.707106769,  0.777777791
     79,           0.,          -1.,  0.777777791
     80, -0.707106769, -0.707106769,  0.777777791
     81,          -1.,           0.,  0.777777791
     82, -0.707106769,  0.707106769,  0.777777791
     83,           0.,           1.,  0.777777791
     84,  0.158106357,  0.325598449,           7.
     85,  0.306635022, -0.308590502,           7.
     86, -0.324912041, -0.163832009,           7.
     87,  0.377372086, 0.00551156094,    3.6069243
     88, -0.307712257,  0.220000401,   3.50685287
     89, -0.263006091,  0.278886765,   2.59655809
     90, -0.145935759, -0.283000678,    3.2206521
     91, 0.0198744312,  0.343172044,   4.17337418
     92,  0.281919658, -0.175181612,   4.48626423
     93, 0.0440392792, -0.409500539,   6.47389889
     94,  0.353457332, -0.0790516585,   6.09479666
     95, -0.420424342, -0.250314415,   4.14345407
     96, -0.193990096, -0.300888658,   5.46122265
     97, 0.0881016105,  0.380152255,    5.3356905
     98,  0.227490455, -0.375374109,   5.00483799
     99, -0.375278771, 0.0508810617,   4.53903532
    100,  0.329652518,  0.144224644,   2.51562548
    101, -0.399370879, 0.0149907358,    5.9352169
    102, -0.0385286026,  0.324397266,   1.24612641
    103, -0.559474409, 0.0673847049,  0.433789253
    104, -0.0128676984, -0.387240142,   0.50300169
    105, -0.299580157,   0.28413403,   6.46587753
    106, 0.0137997419, -0.382400334,   3.92473149
    107, -0.380629808, -0.0244863164,   2.58658767
    108, -0.329405099,  0.195018798,   1.89426291
    109,  0.153862551, -0.320102394,   1.70458353
    110, -0.513451338,  0.412209779,   1.29930115
*Element, type=C3D4
  1,  87,  88,  89,  90
  2,  87,  51,  88,  91
  3,  87,  92,  45,  91
  4,  87,  88,  51,  59
  5,  85,  12,  93,  94
  6,  95,  49,  88,  90
  7,  31,  96,  23,  30
  8,  97,  92,  98,  99
  9,  89,  87, 100,  59
 10,  25, 101,  93,  24
 11,  88,  89,  90,  57
 12,  59,  88,  89,  87
 13, 102,  82, 103,  81
 14, 103,  18, 104,  80
 15, 103,  80,  81,   5
 16, 102,  81, 103,  80
 17, 103,   4,   5,  81
 18, 103,  82,   3,   4
 19, 103,  82,  17,   3
 20,  97,  42,  35,  43
 21, 101,  26, 105,  27
 22,  99,  41,  49,  95
 23,  34,  42,  35,  97
 24,  96,  31,  23,  24
 25, 105,  16,  26,  25
 26,  98,  99,  96,  97
 27,  43,  99,  50,  91
 28,  99,  97,  34,  33
 29,  97,  96,  94, 101
 30,  93,  14,  23,  13
 31,  93,  25,  86, 105
 32, 105,  84,  85,  94
 33, 105, 101,  93,  25
 34,  87,  91,  45,  44
 35,  87, 106,  91,  88
 36,  87, 106,  88,  90
 37, 106,  91,  88,  95
 38, 106,  40,  95,  48
 39, 105,  86,  84,  16
 40,  64, 107,  56,  63
 41, 107,  90,  57,  56
 42, 107,  57,  65,  64
 43, 107, 100,  90,  63
 44,  65, 107,  64, 108
 45, 107, 100,  63, 109
 46, 100,  89, 108, 107
 47,  67, 100,  89, 108
 48,  91,  36,  44,  51
 49,  92,  91,  37,  45
 50,  36,  91,  37,  97
 51,  88,  89,  57,  58
 52,  91,  95,  49,  88
 53,  42,  43,  99,  50
 54, 109, 104,  79,  80
 55, 104,  78,  19,  77
 56,  70, 109,  62,  69
 57, 109, 104,  77,  78
 58, 102,  17,  77, 104
 59,  24,  14,  23,  93
 60, 105,  27,   2,  84
 61, 105,   2,  16,  84
 62, 105,  15,  25,  86
 63, 105,  25,  15,  16
 64, 100,  63, 109,  62
 65,  89,  66,  58,  59
 66, 101,  97,  33,  34
 67,  26,  34,  27, 101
 68,  94,  21,  22,  29
 69,  93,  22,  23,  30
 70,  96, 101,  32,  24
 71,  96,  32,  31,  24
 72,  96,  23,  30,  93
 73,  97,  35,  20,  28
 74,  99,  42,  41,  34
 75,  43,  99,  97,  42
 76,  99,  41,  33,  34
 77,  88,  91,  50,  49
 78,  90,  47,  54, 106
 79,  89,  58,  66,  65
 80,  90,  56,  55,  48
 81, 108, 109, 102,  75
 82, 104,   6,   7,  79
 83, 100,  67,  59,  52
 84, 109,  79,  71,  72
 85, 108, 107,  64, 109
 86, 102, 109,  72,  80
 87, 109,  62,  63,  70
 88, 109,  63,  71,  70
 89, 106,  39,  47,  46
 90,  90,  63, 100,  62
 91,  40,  99,  96,  98
 92, 100,  69, 109,  68
 93,  88,  51,  58,  50
 94,  92,  39,  98,  40
 95,  97,  28,  29,  36
 96,  89,  57,  58,  65
 97,  92, 106,  39,  40
 98, 102,  81, 110,  82
 99, 110,  82,  74,  75
100, 110, 102, 108,  73
101, 102,  82, 110,  75
102, 110,  82,  81,  74
103, 102,  82,  75,  83
104,  96,  39,  32,  40
105, 102, 104, 103,  17
106,  77,  69,  76,  83
107,  31,  39,  32,  96
108, 102, 109,  77,  69
109,  90,  87, 100,  89
110,  86,  84,  85, 105
111,  68, 102,  83,  69
112, 102,  73,  80,  72
113,  97,  36,  29,  37
114,  90, 100,  54,  62
115, 108, 109,  72, 102
116,  98,  38,  37,  30
117, 108,  74, 110,  73
118,   9,  17,  77,   1
119, 108,  67,  75,  74
120, 108, 102, 110,  75
121,  73, 108,  66,  65
122,  98,  96,  30,  29
123,  92, 106,  95,  91
124,  98,  37,  97,  29
125,  97,  35,  34,  27
126,  20,  94,  21,  84
127,  99,  92,  98,  40
128,  94, 105,  84,  27
129,  94, 101, 105,  27
130,  98,  29,  30,  37
131,  95,  48,  49,  90
132,  90, 100,  87,  54
133,  94,  97,  20,  28
134,  87,  91,  44,  51
135,  99,  95,  49,  91
136,  40, 106,  95,  92
137, 105,  26,  16,   2
138,  99,  40,  41,  95
139,  41,  48,  95,  40
140, 107,  89,  65,  57
141,  49,  48,  95,  41
142,  91,  51,  50,  43
143,  88,  51,  59,  58
144, 106,  95,  90,  48
145,  87,  46, 106,  54
146, 107,  56,  63,  90
147, 109, 108,  72,  64
148,  20,  27,  84,  10
149, 100, 109,  75,  68
150, 102, 108,  73,  72
151, 102, 109,  69,  68
152, 109,  62,  69, 100
153, 102,  75, 109,  68
154,  12,  21,  94,  85
155,  91,  43,  97,  36
156, 104,  79,  80,   6
157,  82,  17, 102, 103
158,  49,  91,  50,  99
159, 102,  73,  81,  80
160, 104,  19,  18,  17
161,  78,  77,   8,  19
162,  69, 102,  83,  77
163, 104,  77,  19,  17
164,  77,   1,  76,   9
165,  94,  30,  93,  96
166,  19,  77,   9,  17
167,   1,  17,  77,  83
168, 103,  81,  82,   4
169, 102, 103, 104,  80
170,  74,  81, 110,  73
171,  83,   3,   1,  17
172, 108, 110,  74,  75
173, 104,  80,  18,   6
174, 109, 104,  78,  79
175, 103,  17,  18,   4
176, 104,  19,   6,  18
177,  80,   6,   5,  18
178,  90,  62,  54,  55
179, 109,  78,  77,  70
180,  89,  66,  59,  67
181,  83, 102,  17,  77
182, 100,  68,  75,  60
183, 108,  74,  73,  66
184,  57,  56,  90,  49
185, 108,  67,  74,  66
186,  64, 108,  72,  65
187, 109,  64,  71,  63
188, 100,  68,  61,  69
189, 102,  73, 110,  81
190,  73, 108,  65,  72
191, 109,  71,  79,  78
192, 103,  17, 104,  18
193, 104,   7,  19,  78
194, 108, 100, 109,  75
195,  90,  62,  55,  63
196, 101,  32,  24,  25
197,  94,  28,  20,  21
198, 103,  18,   5,   4
199, 108,  67, 100,  75
200,  97,  20,  35,  27
201, 100,  53,  54,  61
202,  93,  13,  85,  86
203, 100,  52,  60,  67
204, 108, 107, 109, 100
205,  94,  97, 101,  27
206,  93,  96,  24, 101
207,  84,  94,  21,  85
208, 102, 109, 104,  77
209,  83,  82,  17, 102
210,  90,  49,  88,  57
211, 109,  72,  71,  64
212,  24,  25,  86,  93
213,  89,  90,  57, 107
214,  94,  93,  30,  22
215,  65, 108,  66,  89
216,  78,   7,  19,   8
217, 100,  62,  61,  54
218, 108,  89,  67,  66
219, 100,  68,  60,  61
220, 100,  60,  75,  67
221,  87,  54,  53,  46
222, 104,  78,  79,   7
223, 107,  64, 109,  63
224, 100,  67,  89,  59
225,  87, 100,  52,  53
226, 100,  60,  52,  53
227,  87,  53,  52,  45
228, 102,  83,  75,  68
229,  87,  52,  44,  45
230, 106,  54,  46,  47
231,  94,  93, 105, 101
232,  87,  44,  52,  59
233,  82,   3,  83,  17
234,  96, 101,  97,  33
235,  88,  91,  51,  50
236,  90,  48,  55,  47
237,  55,  90,  47,  54
238,  94, 105,  93,  85
239,  95,  92,  99,  40
240,  88,  50,  58,  57
241, 106,  90,  47,  48
242, 106,  48,  47,  40
243,  92,  46,  39, 106
244,  92,  45,  38,  46
245, 101,  26,  33,  25
246,  91,  45,  44,  37
247,  32,  96,  40,  33
248,  87, 100,  59,  52
249, 109,  71,  78,  70
250,  98,  96,  29,  97
251, 101,  34,  33,  26
252,  92,  45,  37,  38
253,  91, 106,  87,  92
254,  38,  92,  46,  39
255,  87,  53,  45,  46
256, 102, 104, 109,  80
257,  99,  49,  41,  42
258, 109,  72,  80,  79
259,  94,  97,  28,  29
260,  88,  89,  58,  59
261,  99,  42,  50,  49
262, 107,  90, 100,  89
263,  48,  49,  90,  56
264,  91,  51,  43,  36
265,  99,  97,  91,  43
266,  89, 107,  65, 108
267,  91,  92,  99,  95
268,  85, 105,  93,  86
269,  40,  98,  96,  39
270, 106,  40,  47,  39
271,  87,  54, 106,  90
272, 100,  60,  53,  61
273,  91,  37,  97,  92
274,  91,  37,  44,  36
275,  88,  49,  50,  57
276,  96,  94, 101,  93
277,  99,  33,  41,  40
278, 103,  80,   5,  18
279,  96,  97,  99,  33
280,  37,  97,  92,  98
281,  94,  96,  97,  29
282, 107,  57,  64,  56
283,  42,  99,  97,  34
284,  94,  21,  29,  28
285,  94,  22,  30,  29
286,  97,  36,  43,  28
287,  34,  27, 101,  97
288,  92,  98,  38,  37
289,  92,  99,  97,  91
290,  93,  96,  23,  24
291,  39,  98,  96,  31
292, 101,  32,  25,  33
293,  21,  84,  11,  20
294,  94,  97,  27,  20
295,  96,  32, 101,  33
296,  94,  12,  93,  22
297, 109,  70,  77,  69
298,  94,  96,  29,  30
299,  98,  31,  38,  30
300,  93,  85,  13,  12
301,  98,  96,  31,  30
302,  93,  13,  23,  22
303,  85,  12,  21,  11
304,  92,  38,  98,  39
305,  93,  12,  13,  22
306,  22,  21,  94,  12
307,  86,  14,  15,  24
308,  85,  84,  11,  21
309,  14,  86,  93,  24
310,  96,  40,  33,  99
311,  15,  24,  25,  86
312,  46,  92,  45,  87
313,  94,  84,  20,  27
314, 105,  86,  16,  15
315,  10,  84,  20,  11
316, 105,  26,   2,  27
317,  90,  56,  63,  55
318, 101, 105,  26,  25
319,  84,   2,  10,  27
320, 106,  90,  95,  88
321,  83,  69,  76,  68
322,  83,   1,  76,  77
323, 104,   6,  19,   7
324,  87,  59,  51,  44
325,  77,  19,   9,   8
326, 103,   4,   3,  17
327,  97,  35,  28,  43
328, 100,  62,  69,  61
329, 100,  87,  54,  53
330,  92, 106,  87,  46
331,  98,  31,  39,  38
332,  13,  86,  93,  14
*Nset, nset=Set-1, generate
   1,  110,    1
*Elset, elset=Set-1, generate
   1,  332,    1
** Section: Section-2
*Solid Section, elset=Set-1, material=Material-2
,
*End Instance
**  
*Node
      1,           0.,           0.,           7.
*Nset, nset=RP
 1,
*Nset, nset=m_Set-1, instance=Part-1-1
  2,  3, 12, 13, 14, 15, 16, 17, 18, 19, 20, 21, 22, 23, 24, 25
 26, 27, 28, 29, 30, 31, 32, 33
*Nset, nset=m_Set-1, instance=Part-2-1
  1,  3,  4,  5,  6,  7,  8,  9, 17, 18, 19
*Nset, nset=m_Set-2, instance=Part-1-1
  1,  4,  5,  6,  7,  8,  9, 10, 11, 34, 35, 36, 37, 38, 39, 40
 41, 42, 43, 44, 45, 46, 47, 48
*Nset, nset=m_Set-2, instance=Part-2-1
  2, 10, 11, 12, 13, 14, 15, 16, 84, 85, 86
*Surface, type=NODE, name=m_Set-2_CNS_, internal
m_Set-2, 1.
** Constraint: TIE_LOAD
*Coupling, constraint name=TIE_LOAD, ref node=RP, surface=m_Set-2_CNS_
*Kinematic
*End Assembly
** 
** MATERIALS
** 
*Material, name=Material-1
*Elastic
5000., 0.3
*Material, name=Material-2
*Elastic
200., 0.167
** ----------------------------------------------------------------
** 
** STEP: Step-1
** 
*Step, name=Step-1, nlgeom=NO
*Static
1., 1., 1e-05, 1.
** 
** OUTPUT REQUESTS
** 
*Restart, write, frequency=0
** 
** FIELD OUTPUT: F-Output-1
** 
*Output, field, variable=PRESELECT
** 
** HISTORY OUTPUT: H-Output-1
** 
*Output, history, variable=PRESELECT
*End Step
