*Heading
** Job name: simple_rat_400 Model name: simple_rat
** Generated by: Abaqus/CAE 2021
*Preprint, echo=NO, model=NO, history=NO, contact=NO
**
** PARTS
**
*Part, name=Part-1
*End Part
**  
*Part, name=Part-2
*End Part
**  
**
** ASSEMBLY
**
*Assembly, name=Assembly
**  
*Instance, name=Part-1-1, part=Part-1
*Node
      1,           0.,           1.,           7.
      2,           0.,           1.,           0.
      3,           0.,           2.,           0.
      4,           0.,           2.,           7.
      5, -0.382683426,  0.923879504,           7.
      6, -0.707106769,  0.707106769,           7.
      7, -0.923879504,  0.382683426,           7.
      8,          -1.,           0.,           7.
      9, -0.923879504, -0.382683426,           7.
     10, -0.707106769, -0.707106769,           7.
     11, -0.382683426, -0.923879504,           7.
     12,           0.,          -1.,           7.
     13,  0.382683426, -0.923879504,           7.
     14,  0.707106769, -0.707106769,           7.
     15,  0.923879504, -0.382683426,           7.
     16,           1.,           0.,           7.
     17,  0.923879504,  0.382683426,           7.
     18,  0.707106769,  0.707106769,           7.
     19,  0.382683426,  0.923879504,           7.
     20, -0.382683426,  0.923879504,           0.
     21, -0.707106769,  0.707106769,           0.
     22, -0.923879504,  0.382683426,           0.
     23,          -1.,           0.,           0.
     24, -0.923879504, -0.382683426,           0.
     25, -0.707106769, -0.707106769,           0.
     26, -0.382683426, -0.923879504,           0.
     27,           0.,          -1.,           0.
     28,  0.382683426, -0.923879504,           0.
     29,  0.707106769, -0.707106769,           0.
     30,  0.923879504, -0.382683426,           0.
     31,           1.,           0.,           0.
     32,  0.923879504,  0.382683426,           0.
     33,  0.707106769,  0.707106769,           0.
     34,  0.382683426,  0.923879504,           0.
     35,  -0.40259704,   1.95905983,           0.
     36, -0.788711727,   1.83791566,           0.
     37,   -1.1425364,   1.64152694,           0.
     38,  -1.44958556,   1.37793386,           0.
     39,  -1.69728851,   1.05792797,           0.
     40,  -1.87550426,  0.694610476,           0.
     41,   -1.9769367,  0.302855551,           0.
     42,  -1.99743307,  -0.10129834,           0.
     43,  -1.93615425, -0.501305044,           0.
     44,  -1.79560912, -0.880788326,           0.
     45,  -1.58155143,  -1.22421193,           0.
     46,  -1.30274498,  -1.51751626,           0.
     47, -0.970603943,  -1.74869323,           0.
     48, -0.598726273,  -1.90827847,           0.
     49, -0.202336639,   -1.9897387,           0.
     50,  0.202336639,   -1.9897387,           0.
     51,  0.598726273,  -1.90827847,           0.
     52,  0.970603943,  -1.74869323,           0.
     53,   1.30274498,  -1.51751626,           0.
     54,   1.58155143,  -1.22421193,           0.
     55,   1.79560912, -0.880788326,           0.
     56,   1.93615425, -0.501305044,           0.
     57,   1.99743307,  -0.10129834,           0.
     58,    1.9769367,  0.302855551,           0.
     59,   1.87550426,  0.694610476,           0.
     60,   1.69728851,   1.05792797,           0.
     61,   1.44958556,   1.37793386,           0.
     62,    1.1425364,   1.64152694,           0.
     63,  0.788711727,   1.83791566,           0.
     64,   0.40259704,   1.95905983,           0.
     65,   0.40259704,   1.95905983,           7.
     66,  0.788711727,   1.83791566,           7.
     67,    1.1425364,   1.64152694,           7.
     68,   1.44958556,   1.37793386,           7.
     69,   1.69728851,   1.05792797,           7.
     70,   1.87550426,  0.694610476,           7.
     71,    1.9769367,  0.302855551,           7.
     72,   1.99743307,  -0.10129834,           7.
     73,   1.93615425, -0.501305044,           7.
     74,   1.79560912, -0.880788326,           7.
     75,   1.58155143,  -1.22421193,           7.
     76,   1.30274498,  -1.51751626,           7.
     77,  0.970603943,  -1.74869323,           7.
     78,  0.598726273,  -1.90827847,           7.
     79,  0.202336639,   -1.9897387,           7.
     80, -0.202336639,   -1.9897387,           7.
     81, -0.598726273,  -1.90827847,           7.
     82, -0.970603943,  -1.74869323,           7.
     83,  -1.30274498,  -1.51751626,           7.
     84,  -1.58155143,  -1.22421193,           7.
     85,  -1.79560912, -0.880788326,           7.
     86,  -1.93615425, -0.501305044,           7.
     87,  -1.99743307,  -0.10129834,           7.
     88,   -1.9769367,  0.302855551,           7.
     89,  -1.87550426,  0.694610476,           7.
     90,  -1.69728851,   1.05792797,           7.
     91,  -1.44958556,   1.37793386,           7.
     92,   -1.1425364,   1.64152694,           7.
     93, -0.788711727,   1.83791566,           7.
     94,  -0.40259704,   1.95905983,           7.
     95, -0.382683426,  0.923879504,   6.61111116
     96, -0.707106769,  0.707106769,   6.61111116
     97, -0.923879504,  0.382683426,   6.61111116
     98,          -1.,           0.,   6.61111116
     99, -0.923879504, -0.382683426,   6.61111116
    100, -0.707106769, -0.707106769,   6.61111116
    101, -0.382683426, -0.923879504,   6.61111116
    102,           0.,          -1.,   6.61111116
    103,  0.382683426, -0.923879504,   6.61111116
    104,  0.707106769, -0.707106769,   6.61111116
    105,  0.923879504, -0.382683426,   6.61111116
    106,           1.,           0.,   6.61111116
    107,  0.923879504,  0.382683426,   6.61111116
    108,  0.707106769,  0.707106769,   6.61111116
    109,  0.382683426,  0.923879504,   6.61111116
    110,           0.,           1.,   6.61111116
    111, -0.382683426,  0.923879504,   6.22222233
    112, -0.707106769,  0.707106769,   6.22222233
    113, -0.923879504,  0.382683426,   6.22222233
    114,          -1.,           0.,   6.22222233
    115, -0.923879504, -0.382683426,   6.22222233
    116, -0.707106769, -0.707106769,   6.22222233
    117, -0.382683426, -0.923879504,   6.22222233
    118,           0.,          -1.,   6.22222233
    119,  0.382683426, -0.923879504,   6.22222233
    120,  0.707106769, -0.707106769,   6.22222233
    121,  0.923879504, -0.382683426,   6.22222233
    122,           1.,           0.,   6.22222233
    123,  0.923879504,  0.382683426,   6.22222233
    124,  0.707106769,  0.707106769,   6.22222233
    125,  0.382683426,  0.923879504,   6.22222233
    126,           0.,           1.,   6.22222233
    127, -0.382683426,  0.923879504,   5.83333349
    128, -0.707106769,  0.707106769,   5.83333349
    129, -0.923879504,  0.382683426,   5.83333349
    130,          -1.,           0.,   5.83333349
    131, -0.923879504, -0.382683426,   5.83333349
    132, -0.707106769, -0.707106769,   5.83333349
    133, -0.382683426, -0.923879504,   5.83333349
    134,           0.,          -1.,   5.83333349
    135,  0.382683426, -0.923879504,   5.83333349
    136,  0.707106769, -0.707106769,   5.83333349
    137,  0.923879504, -0.382683426,   5.83333349
    138,           1.,           0.,   5.83333349
    139,  0.923879504,  0.382683426,   5.83333349
    140,  0.707106769,  0.707106769,   5.83333349
    141,  0.382683426,  0.923879504,   5.83333349
    142,           0.,           1.,   5.83333349
    143, -0.382683426,  0.923879504,   5.44444466
    144, -0.707106769,  0.707106769,   5.44444466
    145, -0.923879504,  0.382683426,   5.44444466
    146,          -1.,           0.,   5.44444466
    147, -0.923879504, -0.382683426,   5.44444466
    148, -0.707106769, -0.707106769,   5.44444466
    149, -0.382683426, -0.923879504,   5.44444466
    150,           0.,          -1.,   5.44444466
    151,  0.382683426, -0.923879504,   5.44444466
    152,  0.707106769, -0.707106769,   5.44444466
    153,  0.923879504, -0.382683426,   5.44444466
    154,           1.,           0.,   5.44444466
    155,  0.923879504,  0.382683426,   5.44444466
    156,  0.707106769,  0.707106769,   5.44444466
    157,  0.382683426,  0.923879504,   5.44444466
    158,           0.,           1.,   5.44444466
    159, -0.382683426,  0.923879504,   5.05555534
    160, -0.707106769,  0.707106769,   5.05555534
    161, -0.923879504,  0.382683426,   5.05555534
    162,          -1.,           0.,   5.05555534
    163, -0.923879504, -0.382683426,   5.05555534
    164, -0.707106769, -0.707106769,   5.05555534
    165, -0.382683426, -0.923879504,   5.05555534
    166,           0.,          -1.,   5.05555534
    167,  0.382683426, -0.923879504,   5.05555534
    168,  0.707106769, -0.707106769,   5.05555534
    169,  0.923879504, -0.382683426,   5.05555534
    170,           1.,           0.,   5.05555534
    171,  0.923879504,  0.382683426,   5.05555534
    172,  0.707106769,  0.707106769,   5.05555534
    173,  0.382683426,  0.923879504,   5.05555534
    174,           0.,           1.,   5.05555534
    175, -0.382683426,  0.923879504,   4.66666651
    176, -0.707106769,  0.707106769,   4.66666651
    177, -0.923879504,  0.382683426,   4.66666651
    178,          -1.,           0.,   4.66666651
    179, -0.923879504, -0.382683426,   4.66666651
    180, -0.707106769, -0.707106769,   4.66666651
    181, -0.382683426, -0.923879504,   4.66666651
    182,           0.,          -1.,   4.66666651
    183,  0.382683426, -0.923879504,   4.66666651
    184,  0.707106769, -0.707106769,   4.66666651
    185,  0.923879504, -0.382683426,   4.66666651
    186,           1.,           0.,   4.66666651
    187,  0.923879504,  0.382683426,   4.66666651
    188,  0.707106769,  0.707106769,   4.66666651
    189,  0.382683426,  0.923879504,   4.66666651
    190,           0.,           1.,   4.66666651
    191, -0.382683426,  0.923879504,   4.27777767
    192, -0.707106769,  0.707106769,   4.27777767
    193, -0.923879504,  0.382683426,   4.27777767
    194,          -1.,           0.,   4.27777767
    195, -0.923879504, -0.382683426,   4.27777767
    196, -0.707106769, -0.707106769,   4.27777767
    197, -0.382683426, -0.923879504,   4.27777767
    198,           0.,          -1.,   4.27777767
    199,  0.382683426, -0.923879504,   4.27777767
    200,  0.707106769, -0.707106769,   4.27777767
    201,  0.923879504, -0.382683426,   4.27777767
    202,           1.,           0.,   4.27777767
    203,  0.923879504,  0.382683426,   4.27777767
    204,  0.707106769,  0.707106769,   4.27777767
    205,  0.382683426,  0.923879504,   4.27777767
    206,           0.,           1.,   4.27777767
    207, -0.382683426,  0.923879504,   3.88888884
    208, -0.707106769,  0.707106769,   3.88888884
    209, -0.923879504,  0.382683426,   3.88888884
    210,          -1.,           0.,   3.88888884
    211, -0.923879504, -0.382683426,   3.88888884
    212, -0.707106769, -0.707106769,   3.88888884
    213, -0.382683426, -0.923879504,   3.88888884
    214,           0.,          -1.,   3.88888884
    215,  0.382683426, -0.923879504,   3.88888884
    216,  0.707106769, -0.707106769,   3.88888884
    217,  0.923879504, -0.382683426,   3.88888884
    218,           1.,           0.,   3.88888884
    219,  0.923879504,  0.382683426,   3.88888884
    220,  0.707106769,  0.707106769,   3.88888884
    221,  0.382683426,  0.923879504,   3.88888884
    222,           0.,           1.,   3.88888884
    223, -0.382683426,  0.923879504,          3.5
    224, -0.707106769,  0.707106769,          3.5
    225, -0.923879504,  0.382683426,          3.5
    226,          -1.,           0.,          3.5
    227, -0.923879504, -0.382683426,          3.5
    228, -0.707106769, -0.707106769,          3.5
    229, -0.382683426, -0.923879504,          3.5
    230,           0.,          -1.,          3.5
    231,  0.382683426, -0.923879504,          3.5
    232,  0.707106769, -0.707106769,          3.5
    233,  0.923879504, -0.382683426,          3.5
    234,           1.,           0.,          3.5
    235,  0.923879504,  0.382683426,          3.5
    236,  0.707106769,  0.707106769,          3.5
    237,  0.382683426,  0.923879504,          3.5
    238,           0.,           1.,          3.5
    239, -0.382683426,  0.923879504,   3.11111116
    240, -0.707106769,  0.707106769,   3.11111116
    241, -0.923879504,  0.382683426,   3.11111116
    242,          -1.,           0.,   3.11111116
    243, -0.923879504, -0.382683426,   3.11111116
    244, -0.707106769, -0.707106769,   3.11111116
    245, -0.382683426, -0.923879504,   3.11111116
    246,           0.,          -1.,   3.11111116
    247,  0.382683426, -0.923879504,   3.11111116
    248,  0.707106769, -0.707106769,   3.11111116
    249,  0.923879504, -0.382683426,   3.11111116
    250,           1.,           0.,   3.11111116
    251,  0.923879504,  0.382683426,   3.11111116
    252,  0.707106769,  0.707106769,   3.11111116
    253,  0.382683426,  0.923879504,   3.11111116
    254,           0.,           1.,   3.11111116
    255, -0.382683426,  0.923879504,   2.72222233
    256, -0.707106769,  0.707106769,   2.72222233
    257, -0.923879504,  0.382683426,   2.72222233
    258,          -1.,           0.,   2.72222233
    259, -0.923879504, -0.382683426,   2.72222233
    260, -0.707106769, -0.707106769,   2.72222233
    261, -0.382683426, -0.923879504,   2.72222233
    262,           0.,          -1.,   2.72222233
    263,  0.382683426, -0.923879504,   2.72222233
    264,  0.707106769, -0.707106769,   2.72222233
    265,  0.923879504, -0.382683426,   2.72222233
    266,           1.,           0.,   2.72222233
    267,  0.923879504,  0.382683426,   2.72222233
    268,  0.707106769,  0.707106769,   2.72222233
    269,  0.382683426,  0.923879504,   2.72222233
    270,           0.,           1.,   2.72222233
    271, -0.382683426,  0.923879504,   2.33333325
    272, -0.707106769,  0.707106769,   2.33333325
    273, -0.923879504,  0.382683426,   2.33333325
    274,          -1.,           0.,   2.33333325
    275, -0.923879504, -0.382683426,   2.33333325
    276, -0.707106769, -0.707106769,   2.33333325
    277, -0.382683426, -0.923879504,   2.33333325
    278,           0.,          -1.,   2.33333325
    279,  0.382683426, -0.923879504,   2.33333325
    280,  0.707106769, -0.707106769,   2.33333325
    281,  0.923879504, -0.382683426,   2.33333325
    282,           1.,           0.,   2.33333325
    283,  0.923879504,  0.382683426,   2.33333325
    284,  0.707106769,  0.707106769,   2.33333325
    285,  0.382683426,  0.923879504,   2.33333325
    286,           0.,           1.,   2.33333325
    287, -0.382683426,  0.923879504,   1.94444442
    288, -0.707106769,  0.707106769,   1.94444442
    289, -0.923879504,  0.382683426,   1.94444442
    290,          -1.,           0.,   1.94444442
    291, -0.923879504, -0.382683426,   1.94444442
    292, -0.707106769, -0.707106769,   1.94444442
    293, -0.382683426, -0.923879504,   1.94444442
    294,           0.,          -1.,   1.94444442
    295,  0.382683426, -0.923879504,   1.94444442
    296,  0.707106769, -0.707106769,   1.94444442
    297,  0.923879504, -0.382683426,   1.94444442
    298,           1.,           0.,   1.94444442
    299,  0.923879504,  0.382683426,   1.94444442
    300,  0.707106769,  0.707106769,   1.94444442
    301,  0.382683426,  0.923879504,   1.94444442
    302,           0.,           1.,   1.94444442
    303, -0.382683426,  0.923879504,   1.55555558
    304, -0.707106769,  0.707106769,   1.55555558
    305, -0.923879504,  0.382683426,   1.55555558
    306,          -1.,           0.,   1.55555558
    307, -0.923879504, -0.382683426,   1.55555558
    308, -0.707106769, -0.707106769,   1.55555558
    309, -0.382683426, -0.923879504,   1.55555558
    310,           0.,          -1.,   1.55555558
    311,  0.382683426, -0.923879504,   1.55555558
    312,  0.707106769, -0.707106769,   1.55555558
    313,  0.923879504, -0.382683426,   1.55555558
    314,           1.,           0.,   1.55555558
    315,  0.923879504,  0.382683426,   1.55555558
    316,  0.707106769,  0.707106769,   1.55555558
    317,  0.382683426,  0.923879504,   1.55555558
    318,           0.,           1.,   1.55555558
    319, -0.382683426,  0.923879504,   1.16666663
    320, -0.707106769,  0.707106769,   1.16666663
    321, -0.923879504,  0.382683426,   1.16666663
    322,          -1.,           0.,   1.16666663
    323, -0.923879504, -0.382683426,   1.16666663
    324, -0.707106769, -0.707106769,   1.16666663
    325, -0.382683426, -0.923879504,   1.16666663
    326,           0.,          -1.,   1.16666663
    327,  0.382683426, -0.923879504,   1.16666663
    328,  0.707106769, -0.707106769,   1.16666663
    329,  0.923879504, -0.382683426,   1.16666663
    330,           1.,           0.,   1.16666663
    331,  0.923879504,  0.382683426,   1.16666663
    332,  0.707106769,  0.707106769,   1.16666663
    333,  0.382683426,  0.923879504,   1.16666663
    334,           0.,           1.,   1.16666663
    335, -0.382683426,  0.923879504,  0.777777791
    336, -0.707106769,  0.707106769,  0.777777791
    337, -0.923879504,  0.382683426,  0.777777791
    338,          -1.,           0.,  0.777777791
    339, -0.923879504, -0.382683426,  0.777777791
    340, -0.707106769, -0.707106769,  0.777777791
    341, -0.382683426, -0.923879504,  0.777777791
    342,           0.,          -1.,  0.777777791
    343,  0.382683426, -0.923879504,  0.777777791
    344,  0.707106769, -0.707106769,  0.777777791
    345,  0.923879504, -0.382683426,  0.777777791
    346,           1.,           0.,  0.777777791
    347,  0.923879504,  0.382683426,  0.777777791
    348,  0.707106769,  0.707106769,  0.777777791
    349,  0.382683426,  0.923879504,  0.777777791
    350,           0.,           1.,  0.777777791
    351, -0.382683426,  0.923879504,  0.388888896
    352, -0.707106769,  0.707106769,  0.388888896
    353, -0.923879504,  0.382683426,  0.388888896
    354,          -1.,           0.,  0.388888896
    355, -0.923879504, -0.382683426,  0.388888896
    356, -0.707106769, -0.707106769,  0.388888896
    357, -0.382683426, -0.923879504,  0.388888896
    358,           0.,          -1.,  0.388888896
    359,  0.382683426, -0.923879504,  0.388888896
    360,  0.707106769, -0.707106769,  0.388888896
    361,  0.923879504, -0.382683426,  0.388888896
    362,           1.,           0.,  0.388888896
    363,  0.923879504,  0.382683426,  0.388888896
    364,  0.707106769,  0.707106769,  0.388888896
    365,  0.382683426,  0.923879504,  0.388888896
    366,           0.,           1.,  0.388888896
    367,  -1.35833728,   1.02965331,           0.
    368,  -1.07485366,   0.78426379,           0.
    369,  -1.49021626,  0.713384688,           0.
    370,  -1.29482961,  0.305490971,           0.
    371,  -1.64894247, 0.0717559308,           0.
    372,  -1.31091416, -0.222792536,           0.
    373,  -1.54422879, -0.581211269,           0.
    374,  -1.68753457, -0.266970247,           0.
    375, -0.693220198,   1.13405025,           0.
    376,  -1.09272945,   1.24156916,           0.
    377,  -1.12053752, -0.716087401,           0.
    378,  -1.19226015,  -1.14090502,           0.
    379, -0.753121555,  -1.09638584,           0.
    380,  -0.64882493,  -1.51758683,           0.
    381,   -0.9735111,  -1.40421748,           0.
    382, -0.266476214,  -1.30350256,           0.
    383, -0.000881101238,  -1.65101838,           0.
    384,   0.26420182,  -1.30747938,           0.
    385,  0.972017765,  -1.40383494,           0.
    386,  0.649350703,  -1.52225244,           0.
    387,   0.75554949,  -1.10446787,           0.
    388,   1.44696462,  -0.91226542,           0.
    389,   1.12648487, -0.724706054,           0.
    390,   1.68900299,  -0.27106443,           0.
    391,   1.55138671, -0.586997628,           0.
    392,   1.32044113,  -0.22809419,           0.
    393,   1.65923476,   0.41577512,           0.
    394,   1.30276215,  0.304439247,           0.
    395,   1.07776916,  0.784648657,           0.
    396,     1.091699,   1.24066901,           0.
    397,   1.36154819,    1.0347594,           0.
    398,  0.686641037,   1.14122963,           0.
    399,  0.517423689,   1.56850052,           0.
    400,  0.199885264,   1.31532502,           0.
    401, -0.128906146,     1.628654,           0.
    402,  0.198199973,   1.69430792,           0.
    403,    1.4956845,  0.715360165,           0.
    404,  0.342746854,  -1.67575347,           0.
    405, -0.846591353,   1.48097897,           0.
    406, -0.253447264,    1.2586236,           0.
    407, -0.518912256,   1.54988039,           0.
    408,  -1.65728581,  0.417619526,           0.
    409,  -1.44683743, -0.908640802,           0.
    410, -0.343449026,  -1.67402494,           0.
    411,    1.1975522,   -1.1478337,           0.
    412,   1.65763509, 0.0704354942,           0.
    413,   0.84540236,   1.48596835,           0.
    414,   1.35833728,   1.02965331,           7.
    415,   1.07485366,   0.78426379,           7.
    416,   1.49021626,  0.713384688,           7.
    417,   1.29482961,  0.305490971,           7.
    418,   1.64894247, 0.0717559308,           7.
    419,   1.31091416, -0.222792536,           7.
    420,   1.54422879, -0.581211269,           7.
    421,   1.68753457, -0.266970247,           7.
    422,  0.693220198,   1.13405025,           7.
    423,   1.09272945,   1.24156916,           7.
    424,   1.12053752, -0.716087401,           7.
    425,   1.19226015,  -1.14090502,           7.
    426,  0.753121555,  -1.09638584,           7.
    427,   0.64882493,  -1.51758683,           7.
    428,    0.9735111,  -1.40421748,           7.
    429,  0.266476214,  -1.30350256,           7.
    430, 0.000881101238,  -1.65101838,           7.
    431,  -0.26420182,  -1.30747938,           7.
    432, -0.972017765,  -1.40383494,           7.
    433, -0.649350703,  -1.52225244,           7.
    434,  -0.75554949,  -1.10446787,           7.
    435,  -1.44696462,  -0.91226542,           7.
    436,  -1.12648487, -0.724706054,           7.
    437,  -1.68900299,  -0.27106443,           7.
    438,  -1.55138671, -0.586997628,           7.
    439,  -1.32044113,  -0.22809419,           7.
    440,  -1.65923476,   0.41577512,           7.
    441,  -1.30276215,  0.304439247,           7.
    442,  -1.07776916,  0.784648657,           7.
    443,    -1.091699,   1.24066901,           7.
    444,  -1.36154819,    1.0347594,           7.
    445, -0.686641037,   1.14122963,           7.
    446, -0.517423689,   1.56850052,           7.
    447, -0.199885264,   1.31532502,           7.
    448,  0.128906146,     1.628654,           7.
    449, -0.198199973,   1.69430792,           7.
    450,   -1.4956845,  0.715360165,           7.
    451, -0.342746854,  -1.67575347,           7.
    452,  0.846591353,   1.48097897,           7.
    453,  0.253447264,    1.2586236,           7.
    454,  0.518912256,   1.54988039,           7.
    455,   1.65728581,  0.417619526,           7.
    456,   1.44683743, -0.908640802,           7.
    457,  0.343449026,  -1.67402494,           7.
    458,   -1.1975522,   -1.1478337,           7.
    459,  -1.65763509, 0.0704354942,           7.
    460,  -0.84540236,   1.48596835,           7.
    461,   0.40259704,   1.95905983,   6.58823538
    462,  0.788711727,   1.83791566,   6.58823538
    463,    1.1425364,   1.64152694,   6.58823538
    464,   1.44958556,   1.37793386,   6.58823538
    465,   1.69728851,   1.05792797,   6.58823538
    466,   1.87550426,  0.694610476,   6.58823538
    467,    1.9769367,  0.302855551,   6.58823538
    468,   1.99743307,  -0.10129834,   6.58823538
    469,   1.93615425, -0.501305044,   6.58823538
    470,   1.79560912, -0.880788326,   6.58823538
    471,   1.58155143,  -1.22421193,   6.58823538
    472,   1.30274498,  -1.51751626,   6.58823538
    473,  0.970603943,  -1.74869323,   6.58823538
    474,  0.598726273,  -1.90827847,   6.58823538
    475,  0.202336639,   -1.9897387,   6.58823538
    476, -0.202336639,   -1.9897387,   6.58823538
    477, -0.598726273,  -1.90827847,   6.58823538
    478, -0.970603943,  -1.74869323,   6.58823538
    479,  -1.30274498,  -1.51751626,   6.58823538
    480,  -1.58155143,  -1.22421193,   6.58823538
    481,  -1.79560912, -0.880788326,   6.58823538
    482,  -1.93615425, -0.501305044,   6.58823538
    483,  -1.99743307,  -0.10129834,   6.58823538
    484,   -1.9769367,  0.302855551,   6.58823538
    485,  -1.87550426,  0.694610476,   6.58823538
    486,  -1.69728851,   1.05792797,   6.58823538
    487,  -1.44958556,   1.37793386,   6.58823538
    488,   -1.1425364,   1.64152694,   6.58823538
    489, -0.788711727,   1.83791566,   6.58823538
    490,  -0.40259704,   1.95905983,   6.58823538
    491,           0.,           2.,   6.58823538
    492,   0.40259704,   1.95905983,   6.17647076
    493,  0.788711727,   1.83791566,   6.17647076
    494,    1.1425364,   1.64152694,   6.17647076
    495,   1.44958556,   1.37793386,   6.17647076
    496,   1.69728851,   1.05792797,   6.17647076
    497,   1.87550426,  0.694610476,   6.17647076
    498,    1.9769367,  0.302855551,   6.17647076
    499,   1.99743307,  -0.10129834,   6.17647076
    500,   1.93615425, -0.501305044,   6.17647076
    501,   1.79560912, -0.880788326,   6.17647076
    502,   1.58155143,  -1.22421193,   6.17647076
    503,   1.30274498,  -1.51751626,   6.17647076
    504,  0.970603943,  -1.74869323,   6.17647076
    505,  0.598726273,  -1.90827847,   6.17647076
    506,  0.202336639,   -1.9897387,   6.17647076
    507, -0.202336639,   -1.9897387,   6.17647076
    508, -0.598726273,  -1.90827847,   6.17647076
    509, -0.970603943,  -1.74869323,   6.17647076
    510,  -1.30274498,  -1.51751626,   6.17647076
    511,  -1.58155143,  -1.22421193,   6.17647076
    512,  -1.79560912, -0.880788326,   6.17647076
    513,  -1.93615425, -0.501305044,   6.17647076
    514,  -1.99743307,  -0.10129834,   6.17647076
    515,   -1.9769367,  0.302855551,   6.17647076
    516,  -1.87550426,  0.694610476,   6.17647076
    517,  -1.69728851,   1.05792797,   6.17647076
    518,  -1.44958556,   1.37793386,   6.17647076
    519,   -1.1425364,   1.64152694,   6.17647076
    520, -0.788711727,   1.83791566,   6.17647076
    521,  -0.40259704,   1.95905983,   6.17647076
    522,           0.,           2.,   6.17647076
    523,   0.40259704,   1.95905983,   5.76470566
    524,  0.788711727,   1.83791566,   5.76470566
    525,    1.1425364,   1.64152694,   5.76470566
    526,   1.44958556,   1.37793386,   5.76470566
    527,   1.69728851,   1.05792797,   5.76470566
    528,   1.87550426,  0.694610476,   5.76470566
    529,    1.9769367,  0.302855551,   5.76470566
    530,   1.99743307,  -0.10129834,   5.76470566
    531,   1.93615425, -0.501305044,   5.76470566
    532,   1.79560912, -0.880788326,   5.76470566
    533,   1.58155143,  -1.22421193,   5.76470566
    534,   1.30274498,  -1.51751626,   5.76470566
    535,  0.970603943,  -1.74869323,   5.76470566
    536,  0.598726273,  -1.90827847,   5.76470566
    537,  0.202336639,   -1.9897387,   5.76470566
    538, -0.202336639,   -1.9897387,   5.76470566
    539, -0.598726273,  -1.90827847,   5.76470566
    540, -0.970603943,  -1.74869323,   5.76470566
    541,  -1.30274498,  -1.51751626,   5.76470566
    542,  -1.58155143,  -1.22421193,   5.76470566
    543,  -1.79560912, -0.880788326,   5.76470566
    544,  -1.93615425, -0.501305044,   5.76470566
    545,  -1.99743307,  -0.10129834,   5.76470566
    546,   -1.9769367,  0.302855551,   5.76470566
    547,  -1.87550426,  0.694610476,   5.76470566
    548,  -1.69728851,   1.05792797,   5.76470566
    549,  -1.44958556,   1.37793386,   5.76470566
    550,   -1.1425364,   1.64152694,   5.76470566
    551, -0.788711727,   1.83791566,   5.76470566
    552,  -0.40259704,   1.95905983,   5.76470566
    553,           0.,           2.,   5.76470566
    554,   0.40259704,   1.95905983,   5.35294104
    555,  0.788711727,   1.83791566,   5.35294104
    556,    1.1425364,   1.64152694,   5.35294104
    557,   1.44958556,   1.37793386,   5.35294104
    558,   1.69728851,   1.05792797,   5.35294104
    559,   1.87550426,  0.694610476,   5.35294104
    560,    1.9769367,  0.302855551,   5.35294104
    561,   1.99743307,  -0.10129834,   5.35294104
    562,   1.93615425, -0.501305044,   5.35294104
    563,   1.79560912, -0.880788326,   5.35294104
    564,   1.58155143,  -1.22421193,   5.35294104
    565,   1.30274498,  -1.51751626,   5.35294104
    566,  0.970603943,  -1.74869323,   5.35294104
    567,  0.598726273,  -1.90827847,   5.35294104
    568,  0.202336639,   -1.9897387,   5.35294104
    569, -0.202336639,   -1.9897387,   5.35294104
    570, -0.598726273,  -1.90827847,   5.35294104
    571, -0.970603943,  -1.74869323,   5.35294104
    572,  -1.30274498,  -1.51751626,   5.35294104
    573,  -1.58155143,  -1.22421193,   5.35294104
    574,  -1.79560912, -0.880788326,   5.35294104
    575,  -1.93615425, -0.501305044,   5.35294104
    576,  -1.99743307,  -0.10129834,   5.35294104
    577,   -1.9769367,  0.302855551,   5.35294104
    578,  -1.87550426,  0.694610476,   5.35294104
    579,  -1.69728851,   1.05792797,   5.35294104
    580,  -1.44958556,   1.37793386,   5.35294104
    581,   -1.1425364,   1.64152694,   5.35294104
    582, -0.788711727,   1.83791566,   5.35294104
    583,  -0.40259704,   1.95905983,   5.35294104
    584,           0.,           2.,   5.35294104
    585,   0.40259704,   1.95905983,   4.94117641
    586,  0.788711727,   1.83791566,   4.94117641
    587,    1.1425364,   1.64152694,   4.94117641
    588,   1.44958556,   1.37793386,   4.94117641
    589,   1.69728851,   1.05792797,   4.94117641
    590,   1.87550426,  0.694610476,   4.94117641
    591,    1.9769367,  0.302855551,   4.94117641
    592,   1.99743307,  -0.10129834,   4.94117641
    593,   1.93615425, -0.501305044,   4.94117641
    594,   1.79560912, -0.880788326,   4.94117641
    595,   1.58155143,  -1.22421193,   4.94117641
    596,   1.30274498,  -1.51751626,   4.94117641
    597,  0.970603943,  -1.74869323,   4.94117641
    598,  0.598726273,  -1.90827847,   4.94117641
    599,  0.202336639,   -1.9897387,   4.94117641
    600, -0.202336639,   -1.9897387,   4.94117641
    601, -0.598726273,  -1.90827847,   4.94117641
    602, -0.970603943,  -1.74869323,   4.94117641
    603,  -1.30274498,  -1.51751626,   4.94117641
    604,  -1.58155143,  -1.22421193,   4.94117641
    605,  -1.79560912, -0.880788326,   4.94117641
    606,  -1.93615425, -0.501305044,   4.94117641
    607,  -1.99743307,  -0.10129834,   4.94117641
    608,   -1.9769367,  0.302855551,   4.94117641
    609,  -1.87550426,  0.694610476,   4.94117641
    610,  -1.69728851,   1.05792797,   4.94117641
    611,  -1.44958556,   1.37793386,   4.94117641
    612,   -1.1425364,   1.64152694,   4.94117641
    613, -0.788711727,   1.83791566,   4.94117641
    614,  -0.40259704,   1.95905983,   4.94117641
    615,           0.,           2.,   4.94117641
    616,   0.40259704,   1.95905983,   4.52941179
    617,  0.788711727,   1.83791566,   4.52941179
    618,    1.1425364,   1.64152694,   4.52941179
    619,   1.44958556,   1.37793386,   4.52941179
    620,   1.69728851,   1.05792797,   4.52941179
    621,   1.87550426,  0.694610476,   4.52941179
    622,    1.9769367,  0.302855551,   4.52941179
    623,   1.99743307,  -0.10129834,   4.52941179
    624,   1.93615425, -0.501305044,   4.52941179
    625,   1.79560912, -0.880788326,   4.52941179
    626,   1.58155143,  -1.22421193,   4.52941179
    627,   1.30274498,  -1.51751626,   4.52941179
    628,  0.970603943,  -1.74869323,   4.52941179
    629,  0.598726273,  -1.90827847,   4.52941179
    630,  0.202336639,   -1.9897387,   4.52941179
    631, -0.202336639,   -1.9897387,   4.52941179
    632, -0.598726273,  -1.90827847,   4.52941179
    633, -0.970603943,  -1.74869323,   4.52941179
    634,  -1.30274498,  -1.51751626,   4.52941179
    635,  -1.58155143,  -1.22421193,   4.52941179
    636,  -1.79560912, -0.880788326,   4.52941179
    637,  -1.93615425, -0.501305044,   4.52941179
    638,  -1.99743307,  -0.10129834,   4.52941179
    639,   -1.9769367,  0.302855551,   4.52941179
    640,  -1.87550426,  0.694610476,   4.52941179
    641,  -1.69728851,   1.05792797,   4.52941179
    642,  -1.44958556,   1.37793386,   4.52941179
    643,   -1.1425364,   1.64152694,   4.52941179
    644, -0.788711727,   1.83791566,   4.52941179
    645,  -0.40259704,   1.95905983,   4.52941179
    646,           0.,           2.,   4.52941179
    647,   0.40259704,   1.95905983,   4.11764717
    648,  0.788711727,   1.83791566,   4.11764717
    649,    1.1425364,   1.64152694,   4.11764717
    650,   1.44958556,   1.37793386,   4.11764717
    651,   1.69728851,   1.05792797,   4.11764717
    652,   1.87550426,  0.694610476,   4.11764717
    653,    1.9769367,  0.302855551,   4.11764717
    654,   1.99743307,  -0.10129834,   4.11764717
    655,   1.93615425, -0.501305044,   4.11764717
    656,   1.79560912, -0.880788326,   4.11764717
    657,   1.58155143,  -1.22421193,   4.11764717
    658,   1.30274498,  -1.51751626,   4.11764717
    659,  0.970603943,  -1.74869323,   4.11764717
    660,  0.598726273,  -1.90827847,   4.11764717
    661,  0.202336639,   -1.9897387,   4.11764717
    662, -0.202336639,   -1.9897387,   4.11764717
    663, -0.598726273,  -1.90827847,   4.11764717
    664, -0.970603943,  -1.74869323,   4.11764717
    665,  -1.30274498,  -1.51751626,   4.11764717
    666,  -1.58155143,  -1.22421193,   4.11764717
    667,  -1.79560912, -0.880788326,   4.11764717
    668,  -1.93615425, -0.501305044,   4.11764717
    669,  -1.99743307,  -0.10129834,   4.11764717
    670,   -1.9769367,  0.302855551,   4.11764717
    671,  -1.87550426,  0.694610476,   4.11764717
    672,  -1.69728851,   1.05792797,   4.11764717
    673,  -1.44958556,   1.37793386,   4.11764717
    674,   -1.1425364,   1.64152694,   4.11764717
    675, -0.788711727,   1.83791566,   4.11764717
    676,  -0.40259704,   1.95905983,   4.11764717
    677,           0.,           2.,   4.11764717
    678,   0.40259704,   1.95905983,   3.70588231
    679,  0.788711727,   1.83791566,   3.70588231
    680,    1.1425364,   1.64152694,   3.70588231
    681,   1.44958556,   1.37793386,   3.70588231
    682,   1.69728851,   1.05792797,   3.70588231
    683,   1.87550426,  0.694610476,   3.70588231
    684,    1.9769367,  0.302855551,   3.70588231
    685,   1.99743307,  -0.10129834,   3.70588231
    686,   1.93615425, -0.501305044,   3.70588231
    687,   1.79560912, -0.880788326,   3.70588231
    688,   1.58155143,  -1.22421193,   3.70588231
    689,   1.30274498,  -1.51751626,   3.70588231
    690,  0.970603943,  -1.74869323,   3.70588231
    691,  0.598726273,  -1.90827847,   3.70588231
    692,  0.202336639,   -1.9897387,   3.70588231
    693, -0.202336639,   -1.9897387,   3.70588231
    694, -0.598726273,  -1.90827847,   3.70588231
    695, -0.970603943,  -1.74869323,   3.70588231
    696,  -1.30274498,  -1.51751626,   3.70588231
    697,  -1.58155143,  -1.22421193,   3.70588231
    698,  -1.79560912, -0.880788326,   3.70588231
    699,  -1.93615425, -0.501305044,   3.70588231
    700,  -1.99743307,  -0.10129834,   3.70588231
    701,   -1.9769367,  0.302855551,   3.70588231
    702,  -1.87550426,  0.694610476,   3.70588231
    703,  -1.69728851,   1.05792797,   3.70588231
    704,  -1.44958556,   1.37793386,   3.70588231
    705,   -1.1425364,   1.64152694,   3.70588231
    706, -0.788711727,   1.83791566,   3.70588231
    707,  -0.40259704,   1.95905983,   3.70588231
    708,           0.,           2.,   3.70588231
    709,   0.40259704,   1.95905983,   3.29411769
    710,  0.788711727,   1.83791566,   3.29411769
    711,    1.1425364,   1.64152694,   3.29411769
    712,   1.44958556,   1.37793386,   3.29411769
    713,   1.69728851,   1.05792797,   3.29411769
    714,   1.87550426,  0.694610476,   3.29411769
    715,    1.9769367,  0.302855551,   3.29411769
    716,   1.99743307,  -0.10129834,   3.29411769
    717,   1.93615425, -0.501305044,   3.29411769
    718,   1.79560912, -0.880788326,   3.29411769
    719,   1.58155143,  -1.22421193,   3.29411769
    720,   1.30274498,  -1.51751626,   3.29411769
    721,  0.970603943,  -1.74869323,   3.29411769
    722,  0.598726273,  -1.90827847,   3.29411769
    723,  0.202336639,   -1.9897387,   3.29411769
    724, -0.202336639,   -1.9897387,   3.29411769
    725, -0.598726273,  -1.90827847,   3.29411769
    726, -0.970603943,  -1.74869323,   3.29411769
    727,  -1.30274498,  -1.51751626,   3.29411769
    728,  -1.58155143,  -1.22421193,   3.29411769
    729,  -1.79560912, -0.880788326,   3.29411769
    730,  -1.93615425, -0.501305044,   3.29411769
    731,  -1.99743307,  -0.10129834,   3.29411769
    732,   -1.9769367,  0.302855551,   3.29411769
    733,  -1.87550426,  0.694610476,   3.29411769
    734,  -1.69728851,   1.05792797,   3.29411769
    735,  -1.44958556,   1.37793386,   3.29411769
    736,   -1.1425364,   1.64152694,   3.29411769
    737, -0.788711727,   1.83791566,   3.29411769
    738,  -0.40259704,   1.95905983,   3.29411769
    739,           0.,           2.,   3.29411769
    740,   0.40259704,   1.95905983,   2.88235283
    741,  0.788711727,   1.83791566,   2.88235283
    742,    1.1425364,   1.64152694,   2.88235283
    743,   1.44958556,   1.37793386,   2.88235283
    744,   1.69728851,   1.05792797,   2.88235283
    745,   1.87550426,  0.694610476,   2.88235283
    746,    1.9769367,  0.302855551,   2.88235283
    747,   1.99743307,  -0.10129834,   2.88235283
    748,   1.93615425, -0.501305044,   2.88235283
    749,   1.79560912, -0.880788326,   2.88235283
    750,   1.58155143,  -1.22421193,   2.88235283
    751,   1.30274498,  -1.51751626,   2.88235283
    752,  0.970603943,  -1.74869323,   2.88235283
    753,  0.598726273,  -1.90827847,   2.88235283
    754,  0.202336639,   -1.9897387,   2.88235283
    755, -0.202336639,   -1.9897387,   2.88235283
    756, -0.598726273,  -1.90827847,   2.88235283
    757, -0.970603943,  -1.74869323,   2.88235283
    758,  -1.30274498,  -1.51751626,   2.88235283
    759,  -1.58155143,  -1.22421193,   2.88235283
    760,  -1.79560912, -0.880788326,   2.88235283
    761,  -1.93615425, -0.501305044,   2.88235283
    762,  -1.99743307,  -0.10129834,   2.88235283
    763,   -1.9769367,  0.302855551,   2.88235283
    764,  -1.87550426,  0.694610476,   2.88235283
    765,  -1.69728851,   1.05792797,   2.88235283
    766,  -1.44958556,   1.37793386,   2.88235283
    767,   -1.1425364,   1.64152694,   2.88235283
    768, -0.788711727,   1.83791566,   2.88235283
    769,  -0.40259704,   1.95905983,   2.88235283
    770,           0.,           2.,   2.88235283
    771,   0.40259704,   1.95905983,   2.47058821
    772,  0.788711727,   1.83791566,   2.47058821
    773,    1.1425364,   1.64152694,   2.47058821
    774,   1.44958556,   1.37793386,   2.47058821
    775,   1.69728851,   1.05792797,   2.47058821
    776,   1.87550426,  0.694610476,   2.47058821
    777,    1.9769367,  0.302855551,   2.47058821
    778,   1.99743307,  -0.10129834,   2.47058821
    779,   1.93615425, -0.501305044,   2.47058821
    780,   1.79560912, -0.880788326,   2.47058821
    781,   1.58155143,  -1.22421193,   2.47058821
    782,   1.30274498,  -1.51751626,   2.47058821
    783,  0.970603943,  -1.74869323,   2.47058821
    784,  0.598726273,  -1.90827847,   2.47058821
    785,  0.202336639,   -1.9897387,   2.47058821
    786, -0.202336639,   -1.9897387,   2.47058821
    787, -0.598726273,  -1.90827847,   2.47058821
    788, -0.970603943,  -1.74869323,   2.47058821
    789,  -1.30274498,  -1.51751626,   2.47058821
    790,  -1.58155143,  -1.22421193,   2.47058821
    791,  -1.79560912, -0.880788326,   2.47058821
    792,  -1.93615425, -0.501305044,   2.47058821
    793,  -1.99743307,  -0.10129834,   2.47058821
    794,   -1.9769367,  0.302855551,   2.47058821
    795,  -1.87550426,  0.694610476,   2.47058821
    796,  -1.69728851,   1.05792797,   2.47058821
    797,  -1.44958556,   1.37793386,   2.47058821
    798,   -1.1425364,   1.64152694,   2.47058821
    799, -0.788711727,   1.83791566,   2.47058821
    800,  -0.40259704,   1.95905983,   2.47058821
    801,           0.,           2.,   2.47058821
    802,   0.40259704,   1.95905983,   2.05882359
    803,  0.788711727,   1.83791566,   2.05882359
    804,    1.1425364,   1.64152694,   2.05882359
    805,   1.44958556,   1.37793386,   2.05882359
    806,   1.69728851,   1.05792797,   2.05882359
    807,   1.87550426,  0.694610476,   2.05882359
    808,    1.9769367,  0.302855551,   2.05882359
    809,   1.99743307,  -0.10129834,   2.05882359
    810,   1.93615425, -0.501305044,   2.05882359
    811,   1.79560912, -0.880788326,   2.05882359
    812,   1.58155143,  -1.22421193,   2.05882359
    813,   1.30274498,  -1.51751626,   2.05882359
    814,  0.970603943,  -1.74869323,   2.05882359
    815,  0.598726273,  -1.90827847,   2.05882359
    816,  0.202336639,   -1.9897387,   2.05882359
    817, -0.202336639,   -1.9897387,   2.05882359
    818, -0.598726273,  -1.90827847,   2.05882359
    819, -0.970603943,  -1.74869323,   2.05882359
    820,  -1.30274498,  -1.51751626,   2.05882359
    821,  -1.58155143,  -1.22421193,   2.05882359
    822,  -1.79560912, -0.880788326,   2.05882359
    823,  -1.93615425, -0.501305044,   2.05882359
    824,  -1.99743307,  -0.10129834,   2.05882359
    825,   -1.9769367,  0.302855551,   2.05882359
    826,  -1.87550426,  0.694610476,   2.05882359
    827,  -1.69728851,   1.05792797,   2.05882359
    828,  -1.44958556,   1.37793386,   2.05882359
    829,   -1.1425364,   1.64152694,   2.05882359
    830, -0.788711727,   1.83791566,   2.05882359
    831,  -0.40259704,   1.95905983,   2.05882359
    832,           0.,           2.,   2.05882359
    833,   0.40259704,   1.95905983,   1.64705884
    834,  0.788711727,   1.83791566,   1.64705884
    835,    1.1425364,   1.64152694,   1.64705884
    836,   1.44958556,   1.37793386,   1.64705884
    837,   1.69728851,   1.05792797,   1.64705884
    838,   1.87550426,  0.694610476,   1.64705884
    839,    1.9769367,  0.302855551,   1.64705884
    840,   1.99743307,  -0.10129834,   1.64705884
    841,   1.93615425, -0.501305044,   1.64705884
    842,   1.79560912, -0.880788326,   1.64705884
    843,   1.58155143,  -1.22421193,   1.64705884
    844,   1.30274498,  -1.51751626,   1.64705884
    845,  0.970603943,  -1.74869323,   1.64705884
    846,  0.598726273,  -1.90827847,   1.64705884
    847,  0.202336639,   -1.9897387,   1.64705884
    848, -0.202336639,   -1.9897387,   1.64705884
    849, -0.598726273,  -1.90827847,   1.64705884
    850, -0.970603943,  -1.74869323,   1.64705884
    851,  -1.30274498,  -1.51751626,   1.64705884
    852,  -1.58155143,  -1.22421193,   1.64705884
    853,  -1.79560912, -0.880788326,   1.64705884
    854,  -1.93615425, -0.501305044,   1.64705884
    855,  -1.99743307,  -0.10129834,   1.64705884
    856,   -1.9769367,  0.302855551,   1.64705884
    857,  -1.87550426,  0.694610476,   1.64705884
    858,  -1.69728851,   1.05792797,   1.64705884
    859,  -1.44958556,   1.37793386,   1.64705884
    860,   -1.1425364,   1.64152694,   1.64705884
    861, -0.788711727,   1.83791566,   1.64705884
    862,  -0.40259704,   1.95905983,   1.64705884
    863,           0.,           2.,   1.64705884
    864,   0.40259704,   1.95905983,    1.2352941
    865,  0.788711727,   1.83791566,    1.2352941
    866,    1.1425364,   1.64152694,    1.2352941
    867,   1.44958556,   1.37793386,    1.2352941
    868,   1.69728851,   1.05792797,    1.2352941
    869,   1.87550426,  0.694610476,    1.2352941
    870,    1.9769367,  0.302855551,    1.2352941
    871,   1.99743307,  -0.10129834,    1.2352941
    872,   1.93615425, -0.501305044,    1.2352941
    873,   1.79560912, -0.880788326,    1.2352941
    874,   1.58155143,  -1.22421193,    1.2352941
    875,   1.30274498,  -1.51751626,    1.2352941
    876,  0.970603943,  -1.74869323,    1.2352941
    877,  0.598726273,  -1.90827847,    1.2352941
    878,  0.202336639,   -1.9897387,    1.2352941
    879, -0.202336639,   -1.9897387,    1.2352941
    880, -0.598726273,  -1.90827847,    1.2352941
    881, -0.970603943,  -1.74869323,    1.2352941
    882,  -1.30274498,  -1.51751626,    1.2352941
    883,  -1.58155143,  -1.22421193,    1.2352941
    884,  -1.79560912, -0.880788326,    1.2352941
    885,  -1.93615425, -0.501305044,    1.2352941
    886,  -1.99743307,  -0.10129834,    1.2352941
    887,   -1.9769367,  0.302855551,    1.2352941
    888,  -1.87550426,  0.694610476,    1.2352941
    889,  -1.69728851,   1.05792797,    1.2352941
    890,  -1.44958556,   1.37793386,    1.2352941
    891,   -1.1425364,   1.64152694,    1.2352941
    892, -0.788711727,   1.83791566,    1.2352941
    893,  -0.40259704,   1.95905983,    1.2352941
    894,           0.,           2.,    1.2352941
    895,   0.40259704,   1.95905983,  0.823529422
    896,  0.788711727,   1.83791566,  0.823529422
    897,    1.1425364,   1.64152694,  0.823529422
    898,   1.44958556,   1.37793386,  0.823529422
    899,   1.69728851,   1.05792797,  0.823529422
    900,   1.87550426,  0.694610476,  0.823529422
    901,    1.9769367,  0.302855551,  0.823529422
    902,   1.99743307,  -0.10129834,  0.823529422
    903,   1.93615425, -0.501305044,  0.823529422
    904,   1.79560912, -0.880788326,  0.823529422
    905,   1.58155143,  -1.22421193,  0.823529422
    906,   1.30274498,  -1.51751626,  0.823529422
    907,  0.970603943,  -1.74869323,  0.823529422
    908,  0.598726273,  -1.90827847,  0.823529422
    909,  0.202336639,   -1.9897387,  0.823529422
    910, -0.202336639,   -1.9897387,  0.823529422
    911, -0.598726273,  -1.90827847,  0.823529422
    912, -0.970603943,  -1.74869323,  0.823529422
    913,  -1.30274498,  -1.51751626,  0.823529422
    914,  -1.58155143,  -1.22421193,  0.823529422
    915,  -1.79560912, -0.880788326,  0.823529422
    916,  -1.93615425, -0.501305044,  0.823529422
    917,  -1.99743307,  -0.10129834,  0.823529422
    918,   -1.9769367,  0.302855551,  0.823529422
    919,  -1.87550426,  0.694610476,  0.823529422
    920,  -1.69728851,   1.05792797,  0.823529422
    921,  -1.44958556,   1.37793386,  0.823529422
    922,   -1.1425364,   1.64152694,  0.823529422
    923, -0.788711727,   1.83791566,  0.823529422
    924,  -0.40259704,   1.95905983,  0.823529422
    925,           0.,           2.,  0.823529422
    926,   0.40259704,   1.95905983,  0.411764711
    927,  0.788711727,   1.83791566,  0.411764711
    928,    1.1425364,   1.64152694,  0.411764711
    929,   1.44958556,   1.37793386,  0.411764711
    930,   1.69728851,   1.05792797,  0.411764711
    931,   1.87550426,  0.694610476,  0.411764711
    932,    1.9769367,  0.302855551,  0.411764711
    933,   1.99743307,  -0.10129834,  0.411764711
    934,   1.93615425, -0.501305044,  0.411764711
    935,   1.79560912, -0.880788326,  0.411764711
    936,   1.58155143,  -1.22421193,  0.411764711
    937,   1.30274498,  -1.51751626,  0.411764711
    938,  0.970603943,  -1.74869323,  0.411764711
    939,  0.598726273,  -1.90827847,  0.411764711
    940,  0.202336639,   -1.9897387,  0.411764711
    941, -0.202336639,   -1.9897387,  0.411764711
    942, -0.598726273,  -1.90827847,  0.411764711
    943, -0.970603943,  -1.74869323,  0.411764711
    944,  -1.30274498,  -1.51751626,  0.411764711
    945,  -1.58155143,  -1.22421193,  0.411764711
    946,  -1.79560912, -0.880788326,  0.411764711
    947,  -1.93615425, -0.501305044,  0.411764711
    948,  -1.99743307,  -0.10129834,  0.411764711
    949,   -1.9769367,  0.302855551,  0.411764711
    950,  -1.87550426,  0.694610476,  0.411764711
    951,  -1.69728851,   1.05792797,  0.411764711
    952,  -1.44958556,   1.37793386,  0.411764711
    953,   -1.1425364,   1.64152694,  0.411764711
    954, -0.788711727,   1.83791566,  0.411764711
    955,  -0.40259704,   1.95905983,  0.411764711
    956,           0.,           2.,  0.411764711
    957,   1.59528244, -0.563276649,  0.261349231
    958,    1.3627212, -0.682200909,  0.215294212
    959,  -1.25262749, -0.194548815,    3.6054318
    960,  -1.05161643, -0.678203583,   3.20113206
    961,   1.65462554, -0.350711316,  0.563504279
    962,    1.3956567, -0.952682853,  0.547132313
    963, -0.347027034,  -1.27449453,   2.63094711
    964, -0.186715543,  -1.23872888,   2.58585024
    965, -0.205768332,   -1.6298337,   2.58442688
    966, -0.224256679,  -1.43231237,   2.30428052
    967, -0.696558416,  -1.58096802,   6.67259073
    968, -0.273390263,   -1.6672281,    6.4527092
    969, -0.500805318,   -1.4311918,   6.78654766
    970, -0.565523386,  -1.18080783,   6.61790705
    971,   -1.3548547,  0.940697491,   5.49325705
    972,  -1.23514521,   0.52285111,   5.12353563
    973,  -1.27411187,   1.09631944,   5.10828161
    974,  -1.01355159,  0.759291291,   5.18623161
    975,   1.20841086,  -1.25742829,   6.73807859
    976,  0.805803478,  -1.46359742,    6.4578948
    977,   1.17350125,  -1.20986748,   6.30735779
    978,  0.921360016,  -1.18098521,   6.76775694
    979,  0.992074728, -0.881552219,   6.61911869
    980,   1.35977256, -0.940434158,   6.46480894
    981,  0.887072206,   1.39559329,   6.47715616
    982,  0.522188246,   1.20668554,   6.67920303
    983,  0.364490211,   1.64855301,   6.40626764
    984,  0.635951638,   1.17594755,   6.34408665
    985,  0.604176164,   1.13468397,  0.391748399
    986,  0.058664646,    1.3153621,  0.307122678
    987,  0.648186147,   1.43682754,  0.276832134
    988,   1.65423179, 0.0254671108,   3.83249569
    989,   1.46199763, -0.835209012,   6.04190874
    990,  0.870138466,   1.02139866,   6.61821938
    991,  0.711025953,   1.45713556,   6.73995018
    992, -0.490297019,   1.63405979,   6.74869394
    993, -0.595043719,   1.33398175,   6.73274994
    994, -0.879911602,   1.44731414,   6.45243645
    995, -0.389243901,   1.26491916,   6.60357523
    996, -0.123545423,   1.60554516,   6.74761009
    997, -0.266413242,   1.66944468,   6.42895412
    998,   1.14054894, -0.659924507,   5.15352964
    999,  -1.65676987, -0.0897440165,   4.25561571
   1000,  -1.62046671, -0.332256258,   4.44455671
   1001,  -1.52110255, -0.585399628,    3.9047792
   1002,   -1.2484448, -0.287001133,   4.10578728
   1003,  -1.64067149,  0.276776552,   4.46310234
   1004,  -0.48824802,   1.59525096,   2.89534807
   1005, -0.450399607,   1.39736247,   2.39876533
   1006, -0.224772364,   1.63433123,   2.57931447
   1007, -0.148557186,   1.31019819,   2.64820886
   1008, -0.599841833,   1.56487489,   3.31584907
   1009,  -0.86845392,   1.41493917,   2.97664881
   1010,  -0.63616848,   1.14507043,   3.02390671
   1011, -0.219328195,   1.64460754,   2.99587584
   1012, -0.890844703,   1.38536465,   2.53966665
   1013,  -1.37764144, -0.492203683,   2.30088305
   1014,  -1.63730907,  -0.46742028,   2.18466306
   1015,  -1.30578148, -0.320344537,   1.99461854
   1016,  -1.04869664, -0.756553292,   1.71081519
   1017,  -1.55910301, -0.601282477,   1.82555366
   1018,   -1.6520617, -0.119447477,   2.59807897
   1019,  -1.23181915, -0.309782565,   2.60539174
   1020,  -1.33697784, 0.0211022031,   2.24027944
   1021,   1.11076176,  -1.23745811,    4.8350668
   1022,   1.36244714,   -0.9147892,   4.44611359
   1023,   1.36570001, -0.936765373,   4.84599209
   1024,  -1.69531798, -0.0304949638,   5.18521643
   1025,  -1.31435299, -0.0322007537,   5.14582586
   1026,  -1.66720641, 0.0944179371,   5.50561857
   1027,  -1.27118981, -0.288064867,   5.41822338
   1028,  -1.57610822, -0.292320698,   4.83797359
   1029,  -1.60546839,  0.533882201,   5.11320305
   1030,  0.120094381,  -1.68518877,    6.4262166
   1031,  -1.65229988,  0.349922001,   4.80936575
   1032,   1.22499514, -0.361306101,   3.27126455
   1033,   1.51017559, -0.635941923,   3.16743779
   1034,   1.35977256, -0.940434158,    3.3635447
   1035,   1.15830481, -0.667573333,   3.00737596
   1036,   1.01283777, -0.757007778,   3.24169493
   1037,   1.27511978,  0.179841354,    3.2792995
   1038,   1.66108155, -0.0671386421,    3.3635447
   1039,   1.27983582, -0.162768438,   2.99964571
   1040,  -1.59992588, -0.516767144,   6.31108236
   1041,  -1.33114171,  -1.04304624,   6.37613535
   1042,   1.13775289, -0.647059023,   3.57642579
   1043,   1.30180228, -0.167593598,   3.58460855
   1044,  0.920528233,   -0.9466272,   4.56429529
   1045,   1.07083905, -0.785411656,   4.10492039
   1046,   1.09286666,  -1.24324405,   4.44931173
   1047,  0.650320709,  -1.08794582,   4.40156651
   1048,   1.22007513,  -0.53484267,    4.3418746
   1049,  0.349658221,   1.24521315,     2.090657
   1050,   1.15040243, -0.650279522,   4.73983669
   1051,  -1.30279732,  -0.51148349,   1.52938068
   1052,  -1.17498493,  -1.13483083,   1.47443175
   1053,  -1.33805001,  -1.01016402,    1.8047632
   1054,  -1.50698626, -0.756273508,   1.37687624
   1055,  0.341779739,   -1.2742064,   5.94202137
   1056,  -1.51816857, -0.724772036,   1.03887177
   1057,  -1.17410922,  -1.14361739,   1.04995561
   1058,   1.09735668,  0.648446381,   3.25862145
   1059,   1.54327965,   0.58620435,   3.33539152
   1060,   1.19320905,   1.15217996,   3.33590317
   1061,   1.37528479,   0.93366766,   3.61348677
   1062,  0.760329366,   1.01926672,   3.25382566
   1063,   1.27520752,  0.349919349,    3.5986867
   1064,   1.01176476,  0.827846587,   3.56995559
   1065,   1.31536973,  0.642668784,    3.8258996
   1066,    1.2292794,  0.312571973,   2.98457694
   1067,   1.46199667, -0.835208535,   5.63110828
   1068,   1.23008192, -0.307585478,   5.57105923
   1069,   1.63704622, -0.448488981,   5.20173597
   1070,   1.22813451, -0.313056231,   5.18316174
   1071,   1.30841529, -0.165154859,   4.75710344
   1072, -0.620652318,  -1.57422686,   0.36013031
   1073, -0.737824619,  -1.52213621,  0.960262597
   1074,  -0.91119802,  -1.39345741,  0.541616321
   1075,  -0.57637316,  -1.19561362,  0.396425486
   1076,  0.855062544,  -1.37214148,  0.254128784
   1077,   0.99248445,  -1.31733179,  0.535190463
   1078,  0.679075718,  -1.12863064,  0.661767006
   1079,  0.994135678, -0.881209016,  0.402622104
   1080,  0.434908718,  -1.60989451,   0.26649186
   1081,  0.606070399,  -1.57994413,  0.550186515
   1082,  0.551671326,  -1.30113804,   0.27460137
   1083,   1.38083887,  0.981787205,   1.78476059
   1084,   1.19445062,    1.1949414,   1.40411973
   1085,   1.17994761,   1.17090249,   1.87211239
   1086,   1.39523983,  0.906319201,   2.19687819
   1087,   1.09742582,   0.64203918,   1.68838894
   1088,    1.1112628,  0.642246664,   2.17506862
   1089,  0.994270504,  0.874376953,   1.77011526
   1090,   1.01603115,  0.763854861,   1.42894077
   1091,    1.3996793,   0.46781531,   1.93053365
   1092,   1.48402083,  0.809379578,   1.50538254
   1093,   1.50354755,  -0.61480552,   2.77012038
   1094,   1.25205278, -0.180610731,   2.59387779
   1095,   1.66317177, -0.323267043,   3.01866817
   1096,  0.396825284,   -1.6019913,   1.74734223
   1097,    1.3572886,  -1.00143957,   3.01538134
   1098,   1.60947776, -0.351027906,   2.52143812
   1099,   1.09296155,  -0.64428997,   2.20379829
   1100,   1.36258292, -0.996136367,    2.2228148
   1101,   1.31073248,  -1.00661147,   2.59760594
   1102,   1.08851421, -0.648413181,   2.59258103
   1103,  0.636219442,  -1.09542167,   3.24837184
   1104,  0.793915749,  -1.05025649,   3.56782818
   1105,   0.79399997,  -1.03766727,   3.04291773
   1106,   1.10188556,  -1.24423194,    3.3635447
   1107, 0.0462660715,  -1.45879757,   3.46121788
   1108,   0.57288748,  -1.52263451,   3.82820439
   1109,   0.13101463,  -1.69743526,   3.53779244
   1110,  0.514942944,  -1.58701742,   3.34519839
   1111, -0.158466026,  -1.29104567,   2.99415493
   1112,  0.326802313,  -1.27978885,   3.02886629
   1113, -0.261687398,  -1.26446247,   3.47805047
   1114, -0.0419348627,  -1.45646036,   3.78364182
   1115, -0.335067868,  -1.63783062,   3.39745879
   1116,    1.6256479, 0.0165767819,   4.22068167
   1117,   1.62046719, -0.332256258,   4.04050541
   1118,   1.61279976,   0.32414937,   4.02110004
   1119,   1.59911621,  0.341969043,   3.61792707
   1120,   1.27793276,  0.335104197,   3.96399903
   1121,  0.995433986, -0.906780362,   5.57301378
   1122,  0.884205103, -0.969468951,   5.03408861
   1123,  0.858642638,  -1.15259683,    5.3830781
   1124, -0.506973565,   1.40872431,    4.6338582
   1125, -0.450399607,   1.39736247,   5.00146246
   1126,  -0.25182423,   1.67269123,   4.80025578
   1127, -0.480924249,   1.45147598,    4.1932478
   1128, -0.971746683,     1.364568,   4.33606434
   1129,  -0.15358986,   1.29791844,   1.45032191
   1130,  0.270921379,   1.28633749,   1.70270038
   1131, -0.135024369,   1.31117547,     1.839854
   1132,  -1.56588805,  0.587476015,   2.30566573
   1133,  -1.51405501,  0.164806291,   2.45835185
   1134,  -1.33704877,  0.598496497,   2.43178511
   1135, -0.181936488,   1.25519609,   4.40391016
   1136, -0.639148593,   1.13720703,   4.38814783
   1137, -0.180683866,   1.25180221,   4.79433537
   1138, -0.649012685,   1.08577526,   4.79217482
   1139,  -1.34872591,  0.662501574,   4.61926651
   1140,  -1.36972666,  0.941389203,   4.81906509
   1141,  -0.97469312,  0.864996195,   4.37532377
   1142,    -1.226215,  0.310796589,   4.79568434
   1143,  -1.02851582,  0.773710072,   4.80213499
   1144,   1.27219152,  0.353500307,   4.34137297
   1145,   1.64205933,  0.283132344,   4.43404961
   1146,   1.61927259, -0.379454345,   4.42879057
   1147,   1.29725385, -0.134856343,   4.37728691
   1148,   1.23906004,  0.290911496,   1.07271266
   1149,   1.28843439,  0.228838831,   1.71081519
   1150,   1.29917467, -0.171463668,   3.96009612
   1151,   1.66108239,  0.304932058,   3.04828572
   1152,   1.60585153, -0.00997892022,   2.78224587
   1153,   1.24457788,    0.3501845,   2.62389374
   1154,   1.48732066, -0.748234093,   3.90834069
   1155,   1.63434672,  0.315518886,   2.55903125
   1156,   1.14850819,   1.23304343,   4.25194883
   1157,  0.993921995,   1.08266962,   3.82211804
   1158,  0.647601724,   1.14508188,   3.98044038
   1159,  0.927721143,   1.38188219,   4.02547741
   1160,    1.0584228,  0.663908064,   4.02992487
   1161,   1.05309737,  0.823257327,   4.36606598
   1162,   1.40290463,  0.933690727,   3.88702679
   1163,  0.639434159,   1.15258527,   4.36375856
   1164,   1.01685321,  0.827952147,   5.96310902
   1165,  0.988359869,   1.09825182,   4.57995462
   1166,  0.886300683,   1.39952362,   4.44455671
   1167,  -1.01047349,   1.32116544,   4.71638489
   1168, -0.645523489,   1.09513021,   5.18122816
   1169, -0.881552637,   1.44198966,   5.22030735
   1170,  -1.14747059, -0.228326291,   2.88869023
   1171, -0.276651531,   1.64218748,   5.24370098
   1172, -0.129989475,   1.31230354,   5.14871931
   1173,  0.333025962,  -1.55745494,   6.75001192
   1174,  0.273476273,   1.67334306,   3.04161954
   1175,  0.555588365,  -1.20662344,   6.61423159
   1176,  0.349976569,  -1.28137589,   6.33815765
   1177, -0.576567769,    1.5175854,   3.83848071
   1178, -0.873405039,   1.39464879,   4.02296686
   1179, -0.264542073,     1.663221,    4.3744154
   1180, -0.266834468,   1.63564813,   4.04050541
   1181, -0.132635295,    1.3159616,   3.96425343
   1182,  0.129047677,   1.63711405,   1.47443175
   1183,  -1.69810438, 0.0257464573,   6.41180944
   1184,  -1.41684711, -0.132449523,   6.68912935
   1185,  -1.41050458, 0.0953340158,   6.17389441
   1186,  -1.25440419,  0.193590552,   6.48481226
   1187,  -1.65636098, -0.321440637,   6.58992004
   1188,  -1.55868804,  0.432453543,   6.43580389
   1189,  -1.35782194,  0.857882202,   6.66513634
   1190,  0.453076899,   1.40193129,   2.80290461
   1191,  0.741262794,   1.51836228,   2.32784796
   1192,  0.886300683,   1.39952362,   2.55544353
   1193,  0.633016288,    1.1603086,   2.63932133
   1194,  -1.39156353,   0.92557019,   6.35327768
   1195,  -1.51375663,  0.569008112,    6.7331543
   1196,  -1.09830463,  0.519473255,   6.74049187
   1197,   -1.1151408,  0.686950207,   6.48028517
   1198,  -1.19920874,   1.15171981,   6.59594965
   1199, -0.850558877,   1.01495051,   6.60357523
   1200,  0.835238695,   -1.4667536,   5.97260761
   1201,  0.789416015,  -1.06195235,   6.32612801
   1202,   1.19617724,  -1.19966459,    5.7535305
   1203,  0.759056747,  -1.01700139,   5.82367659
   1204,  0.652120054,  -1.09002316,   4.01173544
   1205,  0.952301025,  -1.37448084,   3.60254169
   1206,  0.225927874,  -1.24512279,   3.58770251
   1207,  0.389070958,  -1.64214802,    3.9874835
   1208,  0.701575994,  -1.50991845,   4.40175247
   1209,  0.214957967,  -1.25068319,   4.01836252
   1210,   1.45249975,  0.982493997,   6.74651146
   1211,   1.21973097,   1.14767325,   6.42422915
   1212,   1.69525325,  0.507884324,   6.68961525
   1213,   1.47389162,  0.686710715,   6.45121002
   1214,   1.20301545,     1.098423,   6.76227093
   1215,  -1.28855729, -0.00866820663,   3.88094234
   1216,  -1.26384127,  0.246396005,   3.60314918
   1217,  -1.52409244, -0.0130437566,   3.38710618
   1218,  -1.66401601, -0.0743125379,   3.85296154
   1219,  -1.65718532,  -0.30249691,   5.78048801
   1220,  -1.12332964, -0.620987535,   5.67508364
   1221,  -1.32049775, -0.914048731,   5.56492758
   1222,   -1.5807941, -0.581706464,   5.34714794
   1223,   -1.3564049, -0.050370723,   4.37082386
   1224,  -1.27080846,  0.356384248,   3.96425343
   1225,  -1.62182748,  0.329774439,   4.04050541
   1226,   -0.6659832,  -1.08787656,   1.74167025
   1227,   -1.0877099, -0.422675103,   3.65743208
   1228,    1.6619817, -0.156901255,  0.266469717
   1229,   1.67454338,  0.229034811,  0.634155571
   1230,   1.37635779,  0.140718594,  0.356189758
   1231,   1.25359321, -0.425372362,  0.399530232
   1232,   1.14845145, -0.646396577,  0.638711095
   1233, -0.270898759,  -1.67222178,   1.50557363
   1234,  0.023095347,  -1.45609725,   1.17943025
   1235,  0.342764109,  -1.23527288,   1.03848064
   1236,  0.197250023,  -1.29923141,    1.4500457
   1237,  0.396825284,  -1.60199082,   1.34329164
   1238, -0.323268324,   -1.2750262,   1.05362034
   1239, -0.317123592,  -1.29341662,   1.47856164
   1240,  -1.65074348,  0.449177116,    1.4045254
   1241,  -1.60036397,  0.355730653,   1.75509572
   1242,  -1.66433799,  0.219757825,   1.19738519
   1243,  -1.45958543,  0.851287782,   1.40881407
   1244,   -1.5390991,  0.689133525,   1.09580529
   1245,  -1.29037476,   0.35304004,   1.43119824
   1246,  -1.18374407,  -1.22811723,   6.58413887
   1247,  -1.07768309, -0.970680356,   6.73443127
   1248, -0.911135495,  -1.42408097,   6.45216417
   1249,  -1.46590936, -0.798117042,   6.73356152
   1250,  -1.37367654, -0.926998854,   5.93874884
   1251, -0.0643305108,  -1.34407723,  0.382478982
   1252,  0.280900717,    -1.248052,  0.659569025
   1253,  0.243806094,  -1.67532027,  0.565567434
   1254,  -0.57637316,  -1.19561362,   2.91063285
   1255,  -1.06571329, -0.764325798,   2.77497697
   1256, -0.781327844,  -1.02859032,   3.19204783
   1257, -0.793915749,  -1.05025649,   1.05362034
   1258, -0.793915749,  -1.05025649,  0.657195032
   1259,  -1.28348064,  0.371249944,   1.89525294
   1260,  -1.40066671,  0.910000324,   1.75702894
   1261,  -1.26917672, -0.165349066,    1.6643399
   1262,  -1.03332138,  0.822684467,    1.4500457
   1263, -0.627573907,  -1.50732636,   1.46518183
   1264, -0.894499242,  -1.40212822,   1.76136994
   1265,   1.65210879,  0.355530232,   2.19049263
   1266,   1.65629447,   0.35673365,   1.78373635
   1267,   1.27080894,  0.356384248,   2.24289632
   1268,  0.569984972,  -1.26920915,   2.42049313
   1269,  0.899250805,  -1.43956566,   2.58421278
   1270,  0.279542983,  -1.66414022,   2.60590696
   1271,  0.182235345,  -1.28763855,   2.22994804
   1272, 0.0746406317,  -1.31122291,   2.63233447
   1273,  0.773520708,   -1.0074681,   2.59962916
   1274,  0.830584705,  -1.45603466,     3.038661
   1275,  0.881357551,    1.4461391,  0.551727772
   1276,  0.464038849,   1.67775142,  0.265890598
   1277,   0.48490119,   1.62973833,  0.631111085
   1278,    1.6092205, -0.520809293,   5.62070131
   1279,  0.256608158,   1.27840674,  0.657195032
   1280, -0.176276386,   1.25901556,  0.535852909
   1281, -0.970150888,    1.3625505,   2.17583895
   1282, -0.310787737,   1.63576424,   2.16256452
   1283, -0.128965646,   1.32149351,   2.23415494
   1284, -0.478639811,   1.39560211,   2.00521326
   1285, -0.634320796,   1.15548778,   2.24045324
   1286, -0.626583338,   1.14253235,   2.63297439
   1287,  -1.40392673, -0.670564115,   3.18927836
   1288,  -1.24406075,  -0.65663445,   3.50864458
   1289,  -1.58553505, -0.613913834,   3.52511191
   1290,  -1.68239796,  -0.30758369,   3.56437135
   1291,  -1.46351898, -0.890272737,   3.45619535
   1292,  -1.57143736, -0.279444575,   3.17075014
   1293, -0.222285286,  -1.67508745,   3.95957184
   1294, -0.310897261,  -1.22860146,   4.01512671
   1295, -0.525872946,  -1.57632196,    3.6364553
   1296,   1.37692618, -0.193618536,   6.54747295
   1297,   1.48895681, -0.324618101,   6.73191452
   1298,  -1.00614846, -0.833011925,   3.47066498
   1299,  -1.12930548,  -0.66313833,   4.06331444
   1300, -0.758300781,  -1.03022599,   3.67617226
   1301,  -1.31567121, -0.978831053,   3.93756032
   1302,  0.609992743,   1.19582021,   3.55456924
   1303, -0.570277154,  -1.31160343,   5.03920889
   1304, -0.243156046,  -1.23029876,   4.83479023
   1305, -0.283258319,  -1.22530556,   5.20256138
   1306, -0.529797137,  -1.33568227,   5.40788078
   1307, -0.149378374,  -1.53144157,    4.9886322
   1308, -0.713017285,  -1.44097519,   4.63274431
   1309, -0.820761442,  -1.47891271,   5.14734745
   1310, -0.735289633,  -1.02025294,   4.73460007
   1311,  -1.10694933,  -1.27200663,   4.80670834
   1312, -0.760258853,  -1.01814806,   5.18122816
   1313,  -1.66482258, 0.0427085869,   1.99155498
   1314,  0.967027485,    1.3584516,   4.81839085
   1315,   1.01869249,  0.812010705,   4.76719522
   1316,   1.35439491,  0.933674753,   4.83321857
   1317,   1.39841115,  0.893107414,   4.42904806
   1318,  0.640313029,   1.13860285,   4.76308823
   1319,   -0.1049418,  -1.67243636,   5.32740498
   1320, -0.841491163,  -1.44189751,   5.63793659
   1321, -0.197250023,  -1.29923141,   5.54995489
   1322, -0.343152523,  -1.26868725,   5.94981813
   1323, -0.793757439,  -1.03248477,   5.59255362
   1324,  -1.17350173,  -1.20986748,   6.03304863
   1325, -0.774683356,  -1.03190875,   6.34732914
   1326, -0.742210388,  -1.51304722,   5.98057747
   1327,   1.10933578,   1.05476594,  0.402395517
   1328,   1.54233778,  0.622838736,  0.299985588
   1329,   1.46737432,  0.828903675,  0.717695355
   1330,   1.08981776,  0.651024401,  0.513989329
   1331,   1.21083188,  0.600782692,   0.25891003
   1332,   1.26028693,  0.347687244,  0.650484025
   1333,  0.750809371,  0.959133506,  0.552543223
   1334,   1.03778207,  0.836054087,  0.802963197
   1335,  -1.10527635,  -1.13769531,   5.40416765
   1336,  -1.34808481,  -1.01778531,   5.15969992
   1337,  -1.13867342, -0.637078822,   5.16514683
   1338,  -1.02854145, -0.805143714,    5.9502244
   1339, -0.756051779,  -1.01413476,    5.9627037
   1340,  -1.03233039, -0.791971862,   6.33928823
   1341,     -1.19136,  -1.20532024,  0.378186345
   1342,  -1.34372962, -0.939146042,  0.549417198
   1343,  -1.05763841, -0.881677687,  0.341215879
   1344,  -1.44582117,   0.20586054,  0.257804185
   1345, -0.269619077,  -1.63449883,  0.513091445
   1346,  -1.39306319, -0.799081922,  0.287665933
   1347,   1.07801604, -0.676709712,   5.78858471
   1348,  0.263152868,  -1.63031256,   6.06075907
   1349,   1.35652411, -0.952428758,   5.25420618
   1350,  0.572004259,    1.5859642,    4.2533555
   1351,  0.570934713,   1.59253204,   3.84301782
   1352,   0.24294588,   1.62777233,   4.43464565
   1353,  0.266834021,   1.63564813,   4.04050541
   1354,  -1.64749682,  0.200726762,  0.676960826
   1355,  -1.58226359, -0.225640133,  0.249659657
   1356,  -1.31281698, -0.178933755,  0.671721935
   1357, -0.831712723,   1.00022233,   3.30830002
   1358,  -1.23001277,  0.332239777,  0.531817019
   1359,   -1.2503922,  0.585099399,   0.25795716
   1360,  -1.11129606,   1.26357567,   3.31412029
   1361,   -0.6205042,   1.16679561,   3.57752633
   1362,  -1.03332138,  0.822684467,   3.03574705
   1363,  -1.17588246,    1.1538676,   2.96592402
   1364,  -1.36680543,  0.956761241,   3.20634604
   1365,  -1.25015676,   1.03946841,   3.61841655
   1366, -0.875143647,    1.4191426,   3.61821866
   1367,  0.832729876,  -1.46424389,   1.78084791
   1368,  0.891100109,  -1.43627203,  0.959437847
   1369,   1.60036838,  0.064059563,   1.40886152
   1370,    1.6065371, -0.412052393,   1.75658512
   1371,   1.62046719, -0.332256258,   1.34329164
   1372,   1.61732876,  0.486118317,   1.50538254
   1373,   1.25177968, -0.182240695,    1.0372963
   1374,    1.6474973,  0.200726762,  0.939241052
   1375,   1.62046719, -0.332256258,  0.939241052
   1376,   1.62114739, -0.00124068023,   5.85873413
   1377,   1.32515657, 0.0996714309,   6.20249796
   1378,   1.54526079, 0.0972796902,   6.41638708
   1379,   1.63983524,  0.393224329,    6.0832324
   1380,   1.61931074, -0.366116196,   5.99057913
   1381,   1.65679729,  0.356335461,   5.49239779
   1382,   1.30535841,  0.106419213,    5.2484498
   1383, -0.742182016,   1.42910862,  0.253047734
   1384, -0.344833046,   1.37198615,  0.312788099
   1385, -0.886300683,   1.39952362,  0.535190463
   1386,  -0.42067042,   1.63605607,   0.54729104
   1387, -0.701097608,  -1.07495701,   4.18057775
   1388,  -1.10597122,  -1.24164784,    4.3938961
   1389,  0.247063369,    1.6451956,   3.63683128
   1390,  0.327277631,   1.27933252,   3.76317954
   1391,  0.138803542,   1.30809915,   4.16561937
   1392,  0.457892299,   1.40932918,   4.58889627
   1393,   -1.2425524, -0.350357473,   4.49163866
   1394,  -1.51872098, -0.731624901,   4.78432512
   1395,  -1.26269901, -0.195669308,   4.79189825
   1396,  -1.10053098, -0.697600007,   4.59024191
   1397, -0.315045327,   1.22975338,    3.3608551
   1398, -0.109205611,   1.32369018,   3.58306193
   1399, -0.130074605,   1.29549384,   3.05112529
   1400, -0.247638464,   1.66870856,    3.5865674
   1401, -0.0128903128,   1.63996959,   3.35178876
   1402,   -1.2608788, -0.515864372,   6.05076265
   1403,  -1.12348938, -0.611563325,   6.64726448
   1404,  0.252820581,   1.62783706,   2.55220985
   1405,  0.158727631,   1.31234872,    2.4612987
   1406,  0.934901714,   1.40082097,   3.01689506
   1407,  0.649276078,   1.53801322,   3.37151909
   1408,  0.181715667,    1.2518599,   2.97925949
   1409,  0.610229552,   1.18444324,   3.04490328
   1410,  -1.39294207, -0.921538293,   4.41516638
   1411,   1.51725864, -0.757752299,   4.26565742
   1412,  0.160939351,   1.27790833,   6.58405638
   1413,  -1.36310124,  0.671264172,   5.65575743
   1414,  -1.09580958,  0.707030356,   5.97742653
   1415,   1.01603115,  0.763854861,   2.59843373
   1416,   1.36338186,  0.939625323,   2.55544353
   1417,  0.951715767,  0.928110003,   2.10724044
   1418, -0.958759725,  -1.40241551,    1.4150604
   1419, -0.732658446,  -1.07654393,   1.38221753
   1420,  -1.04869664, -0.756553292,   1.31438994
   1421, -0.651665568,  -1.29591477,   2.01493502
   1422, -0.193861946,  -1.24881196,   1.96042156
   1423, -0.485713065,  -1.61380494,   2.06957173
   1424, -0.679250896,  -1.53210747,   2.41322875
   1425, -0.399313688,   -1.1361686,    2.2408464
   1426, -0.787040234,  -1.00316489,   2.05339432
   1427, -0.737312019,  -1.02302861,   2.47119522
   1428,   1.02191162,  -1.03017509,  0.797852874
   1429,  0.793915749,  -1.05025649,   1.05362034
   1430,   1.12686634, -0.656770587,   1.04947448
   1431,   1.39489043, -0.959994197,  0.964568496
   1432,   1.31697571,  0.647249222,   2.79899335
   1433,    1.4031316,  0.941042423,   3.01749444
   1434,   1.01541305,  0.761753976,   2.98656917
   1435,  -1.62763619, -0.464781553,  0.551995158
   1436,  -1.16004515,   1.23111105,   3.98064804
   1437,  -1.09707284,  0.710567892,   4.09990883
   1438,  -1.28362298,   1.05442452,   4.31771946
   1439, -0.948286414,  0.936379552,   3.83211255
   1440,   1.56008208, -0.650497675,   3.43566203
   1441,  0.902750194,   1.39766479,   3.63278461
   1442, -0.344420224,  -1.28352857,   6.33651686
   1443,   -1.0605365,  0.730204642,   3.52195048
   1444, -0.190523088,  -1.29791534,   4.32028675
   1445,  0.107556581,  -1.68867886,   4.37158823
   1446, 0.0282787848,  -1.68528104,   4.67604303
   1447,  -0.45744136,   -1.5917592,   4.41976976
   1448,  -1.57742381, -0.571226954,   2.83812618
   1449,  0.185582191,  -1.25272143,   4.79616928
   1450,  0.207140684,  -1.29577506,   4.38030386
   1451,   1.65237129, -0.261022747,   3.60254169
   1452,   0.96000129,   1.11035693,   2.79899335
   1453,  -1.32015848, -0.0333309993,   2.88390279
   1454, -0.633016288,    1.1603086,  0.657195032
   1455, -0.640163124,   1.12306404,   3.99138641
   1456,  -1.18795109,  0.288442612,   5.98662996
   1457,  -1.22261405,  0.212831795,   5.68474627
   1458,  0.337461829,   1.27660739,   4.96823549
   1459,  0.346828371,   1.63578641,   4.76510668
   1460,  0.178925753,   1.25647485,   4.54038382
   1461, -0.0624939166,  -1.32923591,   6.59824038
   1462, -0.0308172964,    -1.452209,   5.80191851
   1463,  0.323268324,  -1.27502584,   5.54995489
   1464,  0.278704941,  -1.63207603,   5.63682032
   1465, -0.396825284,  -1.60199082,   5.65670872
   1466, -0.263152868,  -1.63031256,   6.06075907
   1467,   1.43101132,  0.595563829,   4.17154503
   1468,  -1.66873348, -0.199001074,   1.36920261
   1469, -0.0529136434,  -1.69301271,   2.16815805
   1470,  0.283303976,   1.23667669,   6.30302906
   1471,   0.32218641,   1.27167845,   5.75426102
   1472,    -0.157573,    1.2834208,   5.95467091
   1473,  0.325233519,   1.62933397,   6.03382349
   1474, -0.179769993,   1.27562034,   6.34771299
   1475, -0.266834468,   1.63564813,   6.06075907
   1476,  0.637204707,   1.16683292,   5.92722559
   1477,  -1.20335507,   1.15300214,   6.06010199
   1478,  -1.61631513,   0.33824265,   5.70907068
   1479,  -1.41318941, -0.0643926114,   5.81436348
   1480,  -1.28460431,  0.211673617,   5.41485214
   1481,   1.21772325,  0.529262781,    6.6460104
   1482,   1.09791088,  0.677125156,   6.35576725
   1483,  0.564648986,   1.33783579,  0.797142565
   1484,  0.877206385,   1.44530725,  0.963723361
   1485,   0.25946638,   1.67260265,  0.960615993
   1486,  0.285877526,       1.2579,    1.1131568
   1487,   0.64349401,   1.06829429,   2.19381857
   1488,  0.666137993,   1.06816125,   1.80754507
   1489,   0.99570179,   1.32642424,   2.15139294
   1490,   1.54198933,  0.515475452,  0.873670757
   1491,   1.27048087, -0.178545326,   0.66251415
   1492,     1.115116,  -1.17161644,   2.79629111
   1493,   1.44817746, -0.741824627,   6.72998285
   1494,   -1.6109215,  -0.33640033,  0.940187275
   1495,  -1.13937438, -0.646283507,  0.671223998
   1496,  -1.23112619, -0.333981097,  0.284151495
   1497,  -1.30841529, -0.165154859,   1.05362034
   1498,  -1.21107042, -0.546783686,   1.05362034
   1499,   -1.6812588,  -0.19759059,     1.772488
   1500,  -1.60873055,  0.526418746,  0.326335549
   1501,  -1.50699019,  0.751756907,   2.90839934
   1502,   1.26570797,  0.682846904,   1.18113875
   1503, -0.858326077,  0.987369716,   0.22394821
   1504,  -1.22705126,   1.15635335,  0.548306882
   1505, -0.973120391,  0.827829778,  0.585946441
   1506,  -1.23791432,  0.841824591,  0.355811089
   1507,  0.207863435,   1.25799847,   3.36845064
   1508,  0.129047677,   1.63711405,  0.535190463
   1509,  0.379550993,   1.62023437,   5.24814224
   1510,  0.969142556,    1.3642416,   5.23417187
   1511,  0.647103369,   1.17284727,   5.15036345
   1512,  0.325529724,   1.27502525,   5.34982777
   1513,  -1.22647393,   1.13399494,   5.72132206
   1514, -0.886300683,   1.39952362,   6.06075907
   1515,  -0.96417284,  0.967631876,   5.69486237
   1516,    0.3986938,   1.63599753,   5.63476563
   1517,  0.886300683,   1.39952362,   5.65670872
   1518,  0.633016288,    1.1603086,   5.54995489
   1519, -0.132635295,    1.3159616,   5.54995489
   1520,   1.60924983, -0.522806823,   6.44733906
   1521,   1.15030932, -0.633396745,   6.38355112
   1522,   1.26698327, -0.518492043,   6.75131893
   1523,  0.266834021,   1.63564813,   2.15139294
   1524, -0.367252648,   1.63431609,   1.76581419
   1525, -0.617901385,    1.1361109,   1.82103002
   1526, -0.904914498,   1.38838613,   1.74978328
   1527, -0.626518607,   1.10109675,   6.34416246
   1528,  0.525570571,   1.61871433,   1.80267024
   1529, -0.190241963,  -1.65275216,   1.76474345
   1530,  -1.51893389,  0.685534835,  0.683067441
   1531,  -1.10045743,  0.722210884,  0.935009181
   1532,   -1.6739186,  0.155546159,   6.72690773
   1533,  -1.19793487,  -1.19294703,   3.19822907
   1534,   1.24348879, -0.340939045,   5.96826601
   1535,    1.2708081,  0.356384248,   5.54995489
   1536,    1.2648176,  0.367984682,   5.95233059
   1537,   1.23052442,   0.24330546,   6.37485409
   1538,  -1.14804304, -0.308381379,   6.38001108
   1539,  0.815376699,   1.04372156,   1.06545401
   1540,   1.30841529, -0.165154412,   1.84647095
   1541,   1.30841529, -0.165154412,    1.4500457
   1542,  0.763044775,  -1.50144589,    5.6088562
   1543,  -1.19513786,  -1.11992705,   2.49561238
   1544, -0.992483974,  -1.31733179,   2.82835412
   1545,  -1.15335202,  -1.22802281,    2.1932857
   1546,  -1.35200942,   -1.0101521,   2.85580802
   1547,  -1.36112273, -0.926817536,   2.16799498
   1548,  -1.40676808, -0.682273149,   2.60167861
   1549,    -1.068501, -0.689526856,   2.39852452
   1550,  0.323268324,   -1.2750262,   5.15352964
   1551,  0.733932376,  -1.45755291,   5.24873543
   1552,  0.263152868,  -1.63031256,   5.25265789
   1553,  0.761193097,   1.45658755,   1.87848246
   1554,  0.812786281,   -1.4438237,   1.35060573
   1555,  0.793915749,  -1.05025649,   1.84647095
   1556,   1.31508851,  -1.00925374,   1.75658512
   1557,  0.911664486,   -1.4280827,   2.19538021
   1558,  0.760259271,  -1.01814806,   1.42894077
   1559, -0.332647741,  -1.28451204,   0.67538625
   1560, -0.132635295,    1.3159616,   1.05362034
   1561,  -0.35474056,    1.6358813,  0.950012743
   1562, -0.993674576,   1.36534834,  0.993078291
   1563, -0.633016288,    1.1603086,   1.05362034
   1564, -0.962296367,  0.935791612,   6.21533966
   1565,  -1.56694162,  0.629308939,   3.53215504
   1566,  -1.43648171,  0.830224156,   4.04050541
   1567,  -1.24666321,  0.332269043,   4.39254904
   1568,  -1.25435412,  0.451621175,   6.21451044
   1569,  -1.54424405,  0.684932649,   6.03869772
   1570,   1.08778262,   -1.3225019,   5.17238951
   1571, -0.203449756,  -1.65015781,  0.952175736
   1572,  0.794438064,  -1.02805781,   2.22351861
   1573,   0.29467386,  -1.62199068,   0.92185545
   1574, -0.645523489,   1.09513021,   5.96089029
   1575,   0.97924161,    1.3627553,   6.05119562
   1576,   -1.1458118, -0.244050875,  0.553629994
   1577, -0.882231057,   1.43592298,   5.63476563
   1578,    1.2714572,  0.222397879,   6.79104757
   1579,  -1.10188556,  -1.24423194,   3.76759577
   1580, -0.910239816,  -1.42662382,   3.98414922
   1581, -0.881748199,    -1.397452,   3.49468493
   1582,  -1.00393188,  0.847582698,   2.60853624
   1583, -0.383353233,   1.64658427,   1.40549159
   1584,  -1.27230859,   1.04231858,   1.08101141
   1585,  -1.02283001,   1.34715354,   1.38833439
   1586,   1.08072793,  -1.28809607,   3.92246747
   1587,  0.123378262,  -1.67398477,   3.04380202
   1588, -0.807295144,  -1.46005595,   3.11516404
   1589,   1.30841529, -0.165154859,   2.24289632
   1590,   1.65668559, -0.334240496,   2.19188929
   1591,  -1.02524781,  0.842878997,   2.23808217
   1592,  -1.20978189,   1.16069698,   2.56609917
   1593,   1.25594592,  0.365937024,   4.74827576
   1594,   1.69001842, 0.0815502331,   4.97052002
   1595,   1.60792851, -0.395320833,   4.84253359
   1596,  -1.22603405,  0.314881265,  0.910044432
   1597,   0.66425705,  -1.09655094,   4.80478096
   1598,  -1.02202201, -0.870875835,   4.86547899
   1599,  0.396825284,   -1.6019913,   2.15139294
   1600, -0.637488067,   1.17768478,   1.44645631
   1601,  0.785338461,   1.42936313,   1.48646235
   1602,  0.619568586,   1.09540963,   1.45696414
   1603,   1.39217591,   0.95574677,   5.93896723
   1604,   1.60409212,  0.519175231,    5.2311101
   1605,   1.25294936,   0.50076586,   5.14339399
   1606,   1.48150051,  0.698824644,   5.65670872
   1607,   1.08659601,  0.654270113,   5.57105923
   1608,   1.36787093,  0.957531035,   5.24335957
   1609,  -1.35539961,  0.891668081,   2.18191409
   1610,  -1.65565646,  0.323553413,   2.94236135
   1611,  -1.26052141,  0.337981045,   2.64666843
   1612,    1.3702246, -0.943596959,   1.35060573
   1613,  -1.23872089,   0.25110057,   3.08548713
   1614,   1.24743688,   1.14265823,   1.04899693
   1615,  -1.02930903,  0.826017082,   1.84769487
   1616,  0.493308187,   1.60637963,   1.41030431
   1617,  0.572037041,  -1.55050766,   4.83288717
   1618,   1.03315115,  0.839503825,   5.15850163
   1619,   1.14054894, -0.659924507,    1.4500457
   1620, -0.310787737,   1.63576424,   5.61508083
   1621,   1.58282626,   0.59832269,   4.72896528
   1622, -0.647086501,   1.08698308,   5.57369757
   1623,   1.14054894, -0.659924507,   1.84647095
   1624,   1.18799102,   1.17406392,   5.61508083
   1625,  0.198656514,  -1.30031908,   1.84686792
   1626, -0.351023465,    -1.631199,   2.98222494
*Element, type=C3D4
   1,  957,  958,  391,  388
   2,  243,  959,  960,  227
   3,  957,   56,  935,   55
   4,  957,  934,   56,  390
   5,  904,  961,  935,  962
   6,  961,  935,  962,  957
   7,  963,  964,  965,  966
   8,  967,  451,  968,  969
   9,  967,  969,  433,  451
  10,  967,   82,  477,   81
  11,  432,  970,  969,  967
  12,  971,  972,  973,  974
  13,  967,  432,  478,   82
  14,  975,   75,  471,  456
  15,  975,  976,  977,  472
  16,  975,  977,  976,  978
  17,  975,  977,  978,  979
  18,  975,  977,  980,  471
  19,  981,  982,  983,  984
  20,  985,  986,  987,  400
  21,  988,  653,  654,  684
  22,  989,  533,  532,  502
  23,  982,   18,  109,  990
  24,  454,  982,  983,  991
  25,  982,  991,  454,  422
  26,  982,  453,   19,  422
  27,  982,  453,  109,   19
  28,  992,  993,  994,  995
  29,  992,  490,  996,  997
  30,  992,  993,  446,  460
  31,  998,  169,  168,  152
  32,  992,  449,  490,   94
  33,  992,  489,   93,   94
  34,  999, 1000, 1001, 1002
  35,  999, 1000,  668, 1001
  36,  999, 1003,  670,  639
  37,  668,  999,  638, 1000
  38,  999, 1003,  639,  638
  39,  999, 1003,  638, 1000
  40, 1004, 1005, 1006, 1007
  41, 1004, 1008, 1009, 1010
  42, 1004, 1006,  800,  769
  43,  800, 1004, 1005, 1006
  44, 1004,  768, 1009, 1008
  45, 1004,  769, 1011, 1006
  46, 1004,  799, 1005, 1012
  47, 1013, 1014,  791,  792
  48, 1013, 1015,  291, 1016
  49, 1017, 1013, 1016, 1015
  50, 1013, 1018, 1019, 1020
  51, 1013, 1014,  792, 1018
  52, 1013, 1020,  274, 1015
  53,  291, 1013,  274, 1015
  54, 1021, 1022, 1023,  626
  55, 1024, 1025, 1026, 1027
  56, 1024,  607, 1028,  606
  57, 1024, 1026,  577,  576
  58, 1024, 1029, 1026, 1025
  59, 1030,  476,  507,  506
  60, 1028, 1025, 1031, 1024
  61,  638, 1031,  607, 1028
  62, 1031,  607, 1028, 1024
  63, 1032, 1033, 1034, 1035
  64, 1036, 1032, 1034, 1035
  65, 1032, 1037, 1038, 1039
  66, 1032,  234, 1037,  250
  67, 1040,  512, 1041,  481
  68, 1032,  233, 1036, 1042
  69, 1032, 1043,  234,  233
  70, 1044, 1045, 1046, 1047
  71, 1044, 1045, 1048, 1022
  72, 1049,  301,  285,  302
  73, 1044, 1048,  184, 1050
  74, 1051, 1052, 1016, 1053
  75, 1054, 1053,  852, 1052
  76, 1053, 1054, 1051, 1052
  77, 1055,  118,  119,  135
  78, 1054, 1056, 1057,  883
  79, 1058, 1059, 1060, 1061
  80, 1058,  236, 1062,  252
  81, 1059, 1058, 1063, 1061
  82, 1062, 1058, 1060, 1064
  83, 1058, 1064,  236,  235
  84, 1064, 1061, 1065, 1063
  85, 1058,  235, 1037, 1063
  86, 1037, 1058, 1059, 1066
  87, 1067,  998, 1068, 1069
  88,  977,  976,  503,  472
  89, 1070,  998, 1068,  153
  90,  169, 1070,  998, 1071
  91, 1072,  912, 1073, 1074
  92, 1072,   47,  381,  380
  93, 1072,  380,   48,   47
  94, 1072,  410,  942,   48
  95, 1072, 1074,  381,  943
  96, 1072,  912, 1074,  943
  97, 1072, 1075,  381, 1074
  98, 1076,  937, 1077,  938
  99, 1076,  937,  411, 1077
 100, 1076, 1078, 1077, 1079
 101, 1076, 1080, 1081, 1082
 102,  385, 1076,  937,  411
 103, 1076, 1082,  387,  386
 104, 1076, 1078, 1081, 1077
 105, 1083,  836, 1084, 1085
 106, 1086, 1087, 1088, 1089
 107, 1083, 1087, 1089, 1090
 108,  955,  407,  954,   36
 109, 1091, 1087, 1088, 1086
 110, 1091, 1083, 1092, 1087
 111, 1093, 1094, 1039, 1095
 112, 1093, 1033,  748, 1095
 113, 1096,  846,  816,  847
 114, 1093, 1033, 1035, 1097
 115, 1093, 1098, 1094, 1095
 116, 1098, 1099, 1100, 1101
 117, 1101, 1093, 1098, 1102
 118, 1036, 1103, 1104,  232
 119, 1036, 1105, 1103,  248
 120, 1036, 1097, 1034, 1106
 121,  992,   93,  460,  446
 122, 1036,  249, 1035,  248
 123, 1105, 1036, 1103, 1106
 124, 1036, 1097, 1105, 1035
 125, 1036, 1104, 1034, 1042
 126, 1107, 1108, 1109, 1110
 127, 1107, 1111,  246, 1112
 128,  246, 1107, 1113, 1111
 129, 1114, 1109, 1115, 1107
 130,  693, 1114, 1109, 1115
 131, 1107, 1114,  230, 1113
 132,  988,  654, 1116, 1117
 133,  988, 1118,  684, 1119
 134,  988, 1119,  684, 1038
 135, 1038, 1037, 1043,  988
 136,  988, 1118, 1119, 1120
 137, 1121,  152, 1122, 1123
 138, 1124,  613, 1125, 1126
 139, 1124,  644, 1127, 1128
 140, 1129, 1130, 1131,  318
 141, 1020, 1132, 1133, 1134
 142, 1135, 1136,  175, 1124
 143, 1043,  234,  233,  217
 144, 1124, 1127, 1135, 1136
 145, 1124, 1137, 1125, 1138
 146, 1124, 1136,  175, 1138
 147, 1139, 1140,  640,  609
 148, 1139,  193, 1141,  177
 149, 1139, 1031, 1003, 1142
 150, 1139, 1029, 1031,  972
 151, 1139, 1143, 1140,  972
 152, 1139, 1143, 1142,  177
 153, 1116, 1118, 1120, 1144
 154, 1120, 1116,  988, 1118
 155, 1116, 1145, 1118, 1144
 156, 1146, 1116, 1145,  623
 157, 1145, 1146, 1071, 1147
 158, 1116, 1118, 1145,  653
 159,  314, 1148,  331, 1149
 160,  988, 1117, 1116, 1150
 161,  988, 1043, 1120, 1063
 162,  988, 1037, 1043, 1063
 163, 1037,  251, 1066,  250
 164, 1037,  234, 1043, 1063
 165, 1037, 1151, 1066, 1059
 166, 1037, 1066, 1039,  250
 167, 1037, 1039, 1066, 1151
 168, 1037, 1063, 1119, 1059
 169, 1063, 1119,  988, 1037
 170, 1152, 1039, 1095, 1038
 171, 1152, 1153, 1094, 1066
 172, 1152, 1095,  747, 1038
 173, 1117, 1154,  686,  655
 174,  778,  747,  777, 1155
 175, 1152, 1094, 1153, 1155
 176, 1152, 1155,  778, 1098
 177, 1155, 1094, 1098, 1152
 178,   50,  940,   51,  404
 179, 1156, 1157, 1158, 1159
 180, 1160, 1157, 1161, 1162
 181, 1157, 1161, 1162, 1156
 182, 1156, 1159, 1158, 1163
 183, 1164,  140,  123,  124
 184, 1156, 1165, 1163, 1161
 185, 1156, 1157, 1159,  650
 186, 1156,  649, 1159, 1166
 187, 1125, 1167, 1168, 1169
 188, 1170,  258,  242,  259
 189,  613, 1126, 1171, 1125
 190, 1041,  480,  481,  511
 191, 1125, 1138, 1137,  159
 192, 1125, 1168, 1138,  159
 193, 1124, 1125, 1167, 1138
 194, 1124, 1126, 1125, 1137
 195, 1125, 1171, 1172, 1126
 196,  457,  427,   78,  474
 197, 1173, 1030,  474,  475
 198, 1174,  710,  740,  709
 199, 1173, 1175,  429,  427
 200, 1173,  474, 1030, 1176
 201,  427, 1173,  474,  457
 202, 1127, 1177, 1178,  675
 203, 1051,  291, 1016,  307
 204, 1179, 1127,  675,  676
 205, 1127, 1177, 1180, 1181
 206,  102, 1175,  103,  429
 207, 1127, 1136, 1128, 1178
 208, 1127, 1136,  191, 1135
 209, 1182,  864,  894,  833
 210, 1124, 1135, 1127, 1179
 211, 1183, 1184, 1185, 1186
 212, 1183, 1185, 1184, 1040
 213,  513, 1040,  514, 1187
 214, 1040,  514, 1187, 1183
 215, 1183, 1185, 1188, 1186
 216, 1183, 1185,  515, 1188
 217, 1183, 1185,  514,  515
 218,  450,  486,  444, 1189
 219, 1190, 1191, 1192, 1193
 220, 1188, 1194,  485, 1195
 221, 1189, 1196,  442,  450
 222, 1197, 1194, 1188, 1195
 223, 1198, 1197,  442, 1189
 224, 1199, 1198, 1197,  442
 225,  977, 1200,  976, 1201
 226,  977,  989,  502, 1202
 227,  977, 1202, 1200, 1203
 228, 1108, 1104, 1204, 1205
 229, 1104, 1103, 1205, 1108
 230, 1110, 1206, 1107, 1108
 231, 1108, 1207, 1208, 1209
 232, 1210, 1211,  464,  465
 233, 1210,  466, 1212, 1213
 234, 1210,   70, 1212,  466
 235, 1210, 1214,  415,  414
 236, 1210,   70,   69,  416
 237, 1210,   69,  414,  416
 238, 1215, 1216, 1217, 1218
 239, 1219, 1220, 1221, 1222
 240, 1215, 1223, 1002,  194
 241, 1215, 1223,  194, 1224
 242,  999, 1215, 1225, 1223
 243, 1001, 1215,  999, 1002
 244, 1226,  308, 1016,  292
 245, 1227, 1215, 1001, 1002
 246, 1215, 1216, 1225, 1224
 247, 1228, 1229,  933,  932
 248, 1228,  392, 1230,  412
 249, 1228,  961,  933, 1229
 250,  957, 1228,  934,  390
 251, 1228,  961,  934,  933
 252, 1228,   57,  390,  412
 253, 1228,   57,  934,  390
 254,  957, 1231, 1232,  961
 255,   30,  392,  361,  389
 256, 1231,  389,  392,  958
 257,  392,  958,  957, 1231
 258,  958, 1232, 1231, 1079
 259,  958, 1232,  957, 1231
 260, 1079,  958,  388,  389
 261,  624,  625, 1146,  655
 262,  962,  958,  388, 1079
 263,  878, 1233,  847, 1234
 264, 1234, 1235, 1236, 1237
 265, 1234,  326, 1238, 1239
 266, 1234, 1238,  326,  342
 267, 1234, 1233, 1239, 1238
 268,   35,  401,  956,  955
 269, 1240,  856, 1241,  857
 270, 1240,  856, 1242, 1241
 271,  887, 1240,  856, 1242
 272, 1240,  857, 1243,  888
 273, 1244, 1242, 1245, 1240
 274, 1053,  820,  821,  851
 275, 1240, 1243, 1245, 1244
 276, 1246, 1247,  458,  434
 277,   98,  441,    7,   97
 278,  478,  479,  432, 1248
 279, 1246,  479,  432,   83
 280, 1246,   84,  479,   83
 281, 1246,  510,  480, 1041
 282, 1246, 1249,  480,  435
 283, 1041, 1246, 1249,  480
 284, 1246,   84,  480,  479
 285, 1250, 1219,  543,  512
 286,   51, 1080,  940,  939
 287, 1080,  383, 1251,  384
 288, 1080, 1252, 1251, 1253
 289,  940, 1080,  383, 1253
 290, 1080,  939, 1253,  940
 291, 1080, 1082,  386,  384
 292, 1254,  244, 1255, 1256
 293, 1080, 1081, 1082, 1252
 294, 1240, 1241, 1243,  857
 295, 1257, 1258,  340,  341
 296, 1259, 1260, 1245, 1241
 297, 1261,  306, 1259,  290
 298, 1243, 1262, 1245, 1244
 299, 1083, 1086,  807,  806
 300, 1263,  849, 1264,  850
 301, 1091, 1265, 1266,  807
 302, 1091, 1088, 1267, 1086
 303, 1268, 1269, 1270,  784
 304, 1268, 1271, 1272,  279
 305, 1268, 1271,  279,  295
 306, 1268,  263, 1112, 1273
 307, 1268, 1272, 1112,  263
 308, 1268, 1112, 1270, 1274
 309, 1268, 1269, 1274, 1270
 310,  987,  927, 1275,  928
 311,   63,  987,  928,  927
 312,  987, 1276, 1277,  927
 313,  987,   63, 1276,  927
 314, 1069, 1278,  562,  561
 315,  987,  985,  400,  398
 316, 1277,  987, 1279, 1276
 317, 1280,  366,  350,  351
 318,  987,  400, 1276,  399
 319, 1005, 1281,  799,  830
 320, 1005,  800, 1006, 1282
 321,  799,  800, 1004, 1005
 322, 1005, 1283, 1284, 1282
 323, 1005,  271, 1285, 1283
 324,  255, 1286, 1007,  271
 325, 1286, 1007,  271, 1005
 326, 1005, 1285, 1286, 1012
 327, 1287,  960,  959, 1288
 328, 1289, 1290,  699, 1001
 329,  975,  425,   76,   75
 330, 1289, 1288, 1001, 1291
 331, 1289, 1290, 1292,  730
 332, 1289, 1290,  730,  699
 333, 1114, 1293,  692, 1207
 334, 1114, 1294, 1113, 1295
 335, 1114, 1108, 1109, 1107
 336, 1114, 1293,  693,  692
 337, 1114,  693, 1293, 1295
 338, 1289, 1001, 1288,  959
 339,  959, 1289, 1287, 1288
 340,  468, 1296, 1297,  418
 341, 1298, 1299, 1300,  212
 342, 1288,  960,  227, 1298
 343, 1301, 1299, 1300, 1298
 344, 1288, 1001, 1301, 1299
 345, 1302,  236,  220,  237
 346, 1303, 1304,  165, 1305
 347, 1303, 1305, 1306, 1307
 348, 1303, 1304, 1307, 1308
 349,  601, 1308,  602, 1309
 350, 1303, 1310, 1311, 1312
 351, 1014, 1018, 1313,  793
 352, 1309, 1308,  602, 1311
 353, 1165, 1314,  618, 1166
 354, 1165, 1314,  619,  618
 355, 1161, 1163,  188, 1165
 356,  204, 1161, 1163,  188
 357, 1165, 1314, 1315, 1316
 358, 1165, 1161, 1317, 1315
 359, 1165,  188, 1161, 1315
 360, 1156, 1163, 1165, 1166
 361, 1165, 1314, 1318, 1315
 362, 1251, 1075,  357,  382
 363, 1306, 1305, 1319, 1307
 364, 1303, 1306, 1312, 1309
 365, 1117,  654,  655,  685
 366,  570, 1309, 1320, 1306
 367, 1306,  133, 1321,  149
 368, 1306, 1305, 1321, 1319
 369, 1306,  133, 1322, 1321
 370, 1306, 1322, 1323, 1320
 371, 1324,  511, 1250,  542
 372, 1324, 1250,  511, 1041
 373, 1324, 1325, 1248, 1326
 374, 1327, 1328, 1329, 1330
 375,  364, 1331, 1327, 1330
 376, 1296,  122,  105,  106
 377, 1330, 1328, 1332, 1331
 378, 1330, 1333,  348, 1334
 379, 1159,  649,  650,  680
 380, 1330, 1334,  347, 1332
 381,  364, 1330,  347,  363
 382, 1335, 1312, 1336, 1337
 383, 1324, 1041, 1246, 1325
 384, 1338, 1339, 1340, 1324
 385, 1324, 1338, 1221, 1250
 386, 1335,  572,  542,  573
 387, 1324,  542, 1335,  541
 388, 1335, 1336,  572,  573
 389, 1341,  914, 1057, 1342
 390, 1341,  379, 1343, 1075
 391,  370, 1344,   23,  353
 392, 1253, 1345,  941,  910
 393, 1070,  153, 1068,  154
 394, 1341, 1342,  945,  914
 395, 1341,  378, 1343,  379
 396, 1343, 1346,  409, 1341
 397, 1341,  381,  944,   46
 398,  153, 1347,  152,  998
 399, 1176, 1348, 1055, 1200
 400,  998,  152,  153,  169
 401, 1347,  152,  998, 1121
 402, 1121, 1067, 1349,  998
 403, 1121, 1202, 1349, 1067
 404,  954,   37,   36,  405
 405, 1121, 1203,  152, 1123
 406, 1121, 1202, 1347, 1203
 407, 1043,  218,  234,  217
 408,  978,  426,  427,  428
 409, 1261,  322, 1245,  306
 410, 1350, 1351, 1159, 1158
 411, 1350, 1352,  647, 1353
 412,  969,  451,  431,  433
 413, 1324, 1323, 1339, 1320
 414, 1344,  949,  948, 1354
 415, 1344, 1355, 1356, 1354
 416, 1344,  372, 1355,  371
 417, 1202,  533,  534,  564
 418, 1357,  240,  239,  223
 419, 1344, 1355,  354, 1356
 420, 1344,  353, 1358,  354
 421, 1344,  408, 1359,  370
 422, 1344, 1359, 1358,  353
 423, 1360, 1357, 1008, 1361
 424, 1019, 1170,  259,  258
 425, 1362, 1357, 1363, 1364
 426, 1357, 1363, 1364, 1360
 427, 1360,  767, 1009, 1363
 428, 1360, 1009,  767,  736
 429, 1360, 1009,  736, 1008
 430, 1360, 1364, 1357, 1365
 431, 1360, 1365, 1366,  704
 432, 1360,  704, 1366,  705
 433, 1360, 1366,  736,  705
 434, 1367,  844,  813,  814
 435, 1076, 1080, 1082,  386
 436, 1080, 1081, 1253,  939
 437, 1081, 1368,  907, 1077
 438, 1081, 1082, 1252, 1078
 439, 1369,  840, 1370, 1371
 440, 1369, 1372, 1266,  839
 441, 1369, 1373, 1374, 1375
 442, 1369, 1374,  871, 1375
 443, 1369,  870, 1374, 1372
 444, 1376, 1377, 1378, 1379
 445, 1376, 1379,  498,  529
 446,  498, 1376, 1378, 1379
 447, 1376,  499, 1378, 1380
 448, 1376, 1379,  529, 1381
 449, 1376,  561, 1382, 1381
 450, 1376, 1381,  530,  561
 451, 1383, 1384,  375,  407
 452, 1383, 1385,  954,  953
 453,  953, 1383,  376,  405
 454,  954,  405,  407, 1383
 455,   36,  954,  405,  407
 456,  407, 1386,  954, 1383
 457, 1310, 1387, 1308, 1388
 458, 1383, 1386,  954, 1385
 459, 1351, 1353,  647,  678
 460,  647, 1351, 1350, 1353
 461,   68, 1210,  464,   69
 462, 1351, 1353,  678, 1389
 463, 1350, 1390, 1158, 1391
 464, 1350, 1353, 1390, 1391
 465, 1350, 1352,  616,  647
 466,  616, 1350, 1392, 1352
 467, 1350, 1159, 1351,  648
 468, 1393, 1394, 1028, 1000
 469, 1393, 1394, 1395, 1028
 470, 1393, 1223, 1395,  178
 471, 1393, 1223,  194, 1002
 472, 1393, 1002,  195, 1299
 473, 1393,  179, 1395, 1396
 474, 1397, 1398,  238,  254
 475, 1361,  239, 1357, 1010
 476, 1397, 1398,  254, 1399
 477, 1008, 1010, 1004, 1397
 478, 1397, 1400, 1398, 1401
 479, 1397, 1011, 1008, 1401
 480, 1397, 1400, 1361, 1398
 481, 1340, 1338,  116, 1339
 482, 1339, 1340, 1324, 1325
 483, 1340, 1402, 1338, 1250
 484, 1324, 1340, 1338, 1250
 485, 1340,  100, 1247, 1325
 486, 1340, 1041, 1247, 1403
 487, 1190,  772, 1191, 1404
 488, 1190, 1405, 1404, 1191
 489,  741, 1406, 1407, 1174
 490, 1190,  269, 1408, 1405
 491, 1408, 1409,  269, 1190
 492,  253, 1408, 1409,  269
 493, 1174, 1406, 1407, 1409
 494, 1409, 1408, 1174, 1190
 495,  635, 1394, 1311, 1410
 496, 1271,  278,  295,  294
 497, 1117, 1048, 1154, 1411
 498,  361,  360,   30,  389
 499, 1411, 1146,  655, 1117
 500, 1411, 1045, 1048, 1154
 501, 1411, 1048, 1045, 1022
 502,  657, 1411, 1045, 1022
 503,  657,  626,  656, 1411
 504, 1411, 1146, 1022,  625
 505,  996, 1412,  448,  447
 506,  992,  449,  996,  490
 507,  996,  491,  997,  490
 508,    4,  996,  490,  491
 509,  996,  491,    4,  448
 510,  996,  983,  448, 1412
 511, 1413, 1414,  129,  128
 512,  461,  448,  491,  983
 513, 1415, 1088, 1267,  283
 514, 1269,  752,  753,  783
 515, 1416, 1088, 1267, 1415
 516, 1089, 1083, 1086, 1087
 517, 1087, 1083, 1086, 1091
 518, 1091,  299, 1088, 1087
 519, 1088, 1416, 1417, 1415
 520, 1257, 1052, 1057, 1418
 521, 1419, 1226,  308, 1016
 522, 1419, 1420, 1052, 1016
 523, 1420, 1052, 1057, 1257
 524, 1419,  325, 1257,  324
 525,  953,  952,   38,  376
 526, 1419, 1257, 1420,  324
 527, 1421, 1422,  966, 1423
 528, 1421, 1423, 1264, 1263
 529, 1421,  819, 1423, 1424
 530, 1421, 1425,  293, 1426
 531, 1421, 1427, 1425, 1426
 532, 1421, 1424,  966, 1425
 533, 1428,  962, 1077, 1079
 534, 1428, 1078, 1368, 1429
 535, 1428,  344, 1430, 1232
 536, 1428, 1079,  344, 1232
 537, 1428, 1430, 1429, 1431
 538, 1036, 1103,  232,  248
 539, 1103, 1104,  232,  231
 540, 1103, 1274, 1110, 1112
 541, 1103, 1104, 1205, 1106
 542, 1036, 1103, 1106, 1104
 543, 1103, 1206, 1108, 1104
 544, 1103, 1104,  231, 1206
 545, 1416, 1155,  745, 1432
 546, 1341,  944,  913,  914
 547, 1432,  267, 1415, 1153
 548, 1432, 1433, 1415, 1434
 549, 1435,  948,  947,  917
 550,  744,  745, 1433, 1416
 551, 1432, 1059, 1151,  745
 552, 1432, 1066, 1151, 1059
 553, 1432, 1153, 1416, 1155
 554, 1432, 1416, 1415, 1433
 555, 1436, 1437, 1141, 1438
 556, 1436, 1178, 1439, 1366
 557,  674, 1128,  673, 1436
 558, 1436, 1128, 1438, 1141
 559, 1038, 1033, 1440, 1032
 560, 1032, 1034, 1033, 1440
 561, 1032, 1035,  249, 1039
 562, 1033, 1095,  717,  748
 563, 1093,  748, 1033,  749
 564, 1032, 1440, 1042, 1034
 565, 1033,  718, 1440, 1034
 566, 1093,  749, 1033, 1097
 567,  780, 1098, 1093,  779
 568, 1093, 1033, 1095, 1035
 569, 1156, 1157,  650, 1162
 570, 1157, 1159,  650,  681
 571,  680, 1441,  681, 1159
 572, 1340, 1403, 1040, 1041
 573,  236, 1064, 1302,  220
 574, 1064, 1302,  220, 1157
 575, 1060, 1441, 1062, 1064
 576, 1156, 1158, 1157, 1161
 577, 1064, 1441, 1062, 1302
 578,  735,  766,  736, 1360
 579, 1442,  102,  118,  101
 580, 1357, 1365, 1364, 1443
 581, 1357, 1008, 1361, 1010
 582, 1439, 1365, 1366, 1361
 583, 1444, 1445, 1446, 1447
 584, 1170, 1292, 1448,  243
 585, 1444, 1304, 1449,  182
 586, 1444, 1209,  198, 1450
 587, 1444, 1304, 1308, 1447
 588, 1444, 1304,  182,  181
 589, 1444, 1308, 1387, 1447
 590, 1444, 1294, 1447, 1387
 591, 1032, 1043,  233, 1042
 592, 1440, 1154, 1034,  687
 593, 1033, 1095, 1038,  717
 594, 1032, 1038, 1451, 1440
 595, 1440, 1451,  686,  717
 596,  686, 1440, 1154, 1451
 597, 1062,  236, 1064, 1302
 598, 1409, 1302,  237, 1062
 599, 1062, 1060, 1452, 1406
 600, 1062, 1452, 1409, 1406
 601, 1064, 1061, 1060, 1441
 602, 1062, 1407, 1406, 1409
 603, 1062, 1441, 1407, 1302
 604, 1177,  706, 1008, 1366
 605, 1453, 1292, 1170,  242
 606, 1177, 1180,  707,  676
 607, 1442,  101,  118,  117
 608, 1400, 1361, 1181, 1177
 609, 1383, 1454, 1386, 1385
 610, 1150,  201,  218,  217
 611, 1177, 1180,  676, 1127
 612, 1177,  707, 1180, 1400
 613, 1181, 1455,  191, 1127
 614, 1127, 1455, 1136, 1178
 615, 1127, 1177, 1181, 1455
 616, 1413, 1456, 1457,  129
 617, 1392, 1458, 1314, 1459
 618, 1350,  617, 1392, 1166
 619, 1392, 1458, 1460,  189
 620, 1392, 1391, 1163, 1460
 621, 1392, 1352, 1391, 1460
 622, 1461,  431,  102,  101
 623, 1392,  189, 1460, 1163
 624, 1350, 1392, 1163, 1166
 625, 1462,  134, 1322,  118
 626, 1462, 1055, 1463,  134
 627, 1462, 1319, 1463, 1464
 628, 1462, 1464, 1463, 1055
 629, 1462, 1322, 1465, 1466
 630,  235, 1063, 1064,  219
 631, 1063, 1064,  219, 1065
 632, 1063, 1119, 1059, 1061
 633, 1272,  278,  964,  262
 634, 1061, 1157, 1064, 1065
 635, 1065, 1162, 1160, 1467
 636, 1065,  219, 1063, 1120
 637, 1054, 1468,  885,  854
 638, 1271,  279,  295,  278
 639, 1421, 1425,  966, 1422
 640,  966, 1271, 1272, 1270
 641, 1469, 1423,  965,  966
 642,  966, 1271, 1270, 1469
 643, 1470,  142, 1471,  141
 644, 1470, 1471,  142, 1472
 645, 1472, 1473, 1474, 1470
 646, 1475, 1472, 1473, 1474
 647, 1470, 1473,  984, 1476
 648, 1470, 1473,  983,  984
 649, 1470,  983, 1473, 1474
 650, 1249, 1187,  482,  438
 651, 1246, 1249, 1247, 1041
 652,  435, 1247, 1246, 1249
 653, 1249, 1040, 1187, 1403
 654,  439, 1249,  436,  438
 655, 1249, 1247, 1403,  436
 656, 1249, 1041,  480,  481
 657, 1477,  517,  518,  548
 658, 1249,   85,  480,  435
 659, 1249,  435,  438,   85
 660, 1478, 1479, 1480, 1457
 661,  991,  981,  462,  463
 662,  463,  991,  423,  452
 663,   66,  462,  452,  454
 664,  462,  452,  454,  991
 665,  982,  454, 1412,  453
 666,  461,  462,  454,  983
 667, 1254, 1111,  963,  261
 668,  982, 1470, 1412,  983
 669, 1210, 1213, 1481, 1482
 670, 1210, 1214,  464, 1211
 671, 1214,  981,  990,  423
 672,  981,  463,  423, 1214
 673,  108,   18,  990,  109
 674,  990,  423,  415, 1214
 675, 1210, 1211,  465, 1213
 676, 1210, 1214, 1211, 1482
 677, 1210,  415, 1214, 1481
 678, 1192, 1416,  743, 1452
 679, 1483, 1484, 1485, 1486
 680, 1406, 1192,  743, 1452
 681,  742, 1406, 1192,  743
 682, 1062, 1434, 1452, 1060
 683,  268,  252, 1434, 1452
 684, 1487, 1488, 1489, 1417
 685, 1452, 1193, 1415,  268
 686, 1452, 1415, 1193, 1192
 687, 1328,  930,  397, 1327
 688, 1328,   59,   60,  931
 689,  394, 1328,  403, 1331
 690, 1330, 1332, 1328, 1329
 691, 1328, 1490,  931, 1329
 692, 1328,   60,  930,  931
 693, 1328, 1229,  932,  931
 694, 1328, 1229,  393,  932
 695, 1328,  393,   59,  931
 696, 1148, 1491, 1332, 1374
 697, 1148, 1332,  346,  347
 698, 1492,  751, 1097, 1106
 699, 1492, 1105, 1097, 1035
 700, 1492, 1097, 1105, 1106
 701, 1492,  751, 1101, 1097
 702,  782, 1492, 1101, 1269
 703, 1492, 1101, 1102, 1035
 704, 1101, 1097, 1035, 1492
 705,  974,  161,  144,  145
 706, 1269, 1492, 1101, 1273
 707, 1276,  986,  402,  400
 708, 1493,  420,  424,  456
 709, 1275, 1483, 1277,  987
 710,  402,  926,    3,  956
 711, 1276,  399,   64,   63
 712,  737, 1008,  768,  738
 713,  987,  399, 1276,   63
 714,  226,  227,  959,  243
 715,  987, 1275,  927, 1277
 716, 1255,  259,  243,  260
 717,  948,   43,   42,  374
 718,  926, 1276,  402,   64
 719, 1435,  946,  373, 1346
 720, 1355,  947,  948,  374
 721, 1494, 1056, 1435, 1495
 722, 1338, 1220, 1250, 1402
 723, 1346, 1342,  946,  945
 724, 1342, 1346, 1341,  945
 725,  374,  371,   42,  948
 726,  946,  409,  373, 1346
 727, 1346, 1496,  377,  373
 728, 1091, 1267, 1088,  299
 729, 1089, 1090, 1087,  316
 730,  299, 1087,  300, 1088
 731, 1087,  300, 1088, 1089
 732, 1083, 1090, 1092, 1087
 733, 1089, 1083, 1084, 1085
 734, 1088, 1086, 1089, 1417
 735, 1083, 1085, 1089, 1086
 736, 1051, 1261, 1015,  291
 737, 1051, 1015, 1016,  291
 738, 1051, 1261, 1497, 1468
 739, 1051, 1498, 1054, 1468
 740, 1054,  854, 1017, 1051
 741, 1051, 1261, 1499, 1015
 742, 1051, 1499, 1261, 1468
 743, 1344, 1500,  949, 1354
 744, 1355,  373, 1496, 1435
 745, 1355,  372, 1496,  373
 746,  371, 1355,  948,  374
 747, 1355, 1496,  354, 1356
 748,  869, 1490,  870, 1372
 749, 1148, 1374, 1490, 1372
 750,  796, 1501,  795, 1132
 751, 1490,  901, 1374, 1229
 752, 1328,  931, 1490, 1229
 753, 1490, 1329,  900,  931
 754, 1148, 1490, 1374, 1332
 755, 1148, 1491,  346, 1332
 756, 1490, 1329, 1332, 1334
 757, 1490, 1502, 1329, 1334
 758, 1490, 1374, 1332, 1229
 759, 1376, 1380, 1278,  530
 760, 1174, 1408, 1007, 1404
 761, 1190, 1408, 1404, 1405
 762,  952,  951,   39,  367
 763, 1011, 1408, 1007, 1174
 764, 1503, 1385, 1504, 1505
 765, 1506, 1359,  369,  368
 766, 1190,  740, 1174,  741
 767, 1408, 1401, 1174, 1011
 768, 1507, 1409, 1408, 1174
 769, 1507, 1401, 1174, 1408
 770,  402, 1508,  986, 1276
 771,  986, 1280,  366, 1279
 772,  986,  366, 1280, 1384
 773,  986,    2,  366,  406
 774,  986,  400,    2,  406
 775, 1401, 1399, 1408, 1507
 776, 1507, 1398, 1401, 1399
 777, 1507, 1390, 1389, 1398
 778, 1507, 1389, 1390, 1407
 779, 1507, 1302, 1390,  237
 780, 1351, 1390, 1353, 1389
 781, 1407,  679,  678, 1351
 782, 1351, 1407, 1390, 1389
 783, 1390, 1391, 1353, 1181
 784, 1507, 1174, 1407, 1409
 785, 1507, 1398, 1389, 1401
 786, 1390, 1398,  222, 1181
 787, 1135, 1179, 1460, 1391
 788, 1391, 1353, 1180, 1179
 789, 1350, 1392, 1391, 1163
 790, 1391, 1181, 1180, 1353
 791, 1390, 1181, 1353, 1389
 792, 1350, 1391, 1392, 1352
 793, 1350, 1163, 1391, 1158
 794, 1509,  586, 1510, 1511
 795, 1392, 1314, 1458, 1318
 796, 1387,  196,  213,  212
 797,  989,  532,  501,  502
 798, 1392, 1458,  189, 1318
 799, 1458,  190, 1460,  189
 800, 1458, 1460,  190, 1137
 801, 1458, 1512, 1509, 1172
 802, 1458, 1459, 1137, 1172
 803, 1513,  580,  973,  971
 804, 1513, 1477,  549,  548
 805, 1513, 1477, 1514,  550
 806, 1513,  973, 1515,  971
 807, 1513, 1477, 1515, 1514
 808, 1516,  555, 1517, 1518
 809, 1518,  555, 1517, 1510
 810, 1512, 1519, 1471, 1516
 811, 1311, 1312, 1336, 1309
 812, 1512, 1172, 1519, 1509
 813, 1458, 1459, 1172, 1509
 814, 1458, 1512, 1511, 1509
 815, 1470, 1471, 1473, 1476
 816, 1471, 1519, 1472, 1516
 817, 1517, 1476, 1516, 1518
 818, 1512, 1516, 1509, 1519
 819, 1512, 1518, 1471,  157
 820, 1297, 1296,  419,  418
 821, 1297, 1520,  468,  469
 822, 1297,  105, 1521, 1522
 823, 1087,  316,  299,  300
 824, 1297, 1521,  105, 1296
 825,  975,  428,  472,   76
 826,  978, 1201, 1175,  979
 827,  978, 1175, 1201,  976
 828,  426,  979,  425,  978
 829, 1309, 1320,  572,  571
 830,  978,  427, 1175,  976
 831,  978, 1175,  427,  426
 832, 1404, 1283, 1007, 1006
 833, 1408, 1405, 1007, 1404
 834, 1404, 1405, 1283, 1523
 835, 1405, 1404, 1283, 1007
 836, 1190, 1408, 1174, 1404
 837, 1405, 1523, 1191, 1049
 838, 1190, 1405, 1191, 1193
 839, 1335,  148, 1312, 1337
 840, 1062, 1302,  237,  236
 841,  831, 1282,  830, 1524
 842, 1284, 1525, 1281, 1526
 843, 1284, 1525, 1524, 1131
 844, 1284,  287, 1525, 1131
 845, 1284, 1525, 1285, 1281
 846, 1284, 1525,  287, 1285
 847, 1179, 1460, 1391, 1352
 848, 1460, 1352, 1126, 1459
 849, 1458, 1459, 1460, 1137
 850, 1392,  616, 1352, 1459
 851, 1392, 1458, 1459, 1460
 852, 1314, 1458, 1511,  586
 853,  409,   45,  945,  946
 854,  992,  996,  447,  995
 855, 1527, 1199,  995,  994
 856, 1199,  995,  994,  993
 857,  993, 1199,  443,  994
 858,  993,  443, 1199,  445
 859,  995,  447,  992,  993
 860,  993,  445,  995,  447
 861, 1523,  803, 1191, 1528
 862,  772,  803, 1191, 1523
 863, 1191, 1523, 1528, 1049
 864, 1421, 1226, 1239, 1263
 865,  966, 1423,  965, 1424
 866, 1421, 1529, 1423, 1263
 867, 1369, 1371, 1375,  871
 868,  849, 1264,  819, 1423
 869,  439, 1184, 1187,  459
 870, 1423, 1469,  817, 1529
 871, 1423, 1263,  849, 1264
 872,  475,  430,   80,   79
 873, 1421, 1264, 1423,  819
 874, 1522, 1521, 1297, 1493
 875, 1493,  980,  470,  471
 876,  975,  980, 1493,  471
 877,   74,  470,  456,  420
 878,  470,  456,  420, 1493
 879, 1297, 1493,  469,  420
 880, 1493, 1520,  469,  470
 881, 1506, 1530, 1504,  951
 882, 1506, 1531, 1504, 1530
 883, 1506, 1530, 1358, 1531
 884, 1506, 1359,  353, 1358
 885,  368, 1359,  353, 1506
 886, 1506,  368,  352,  353
 887, 1495,  356,  355,  339
 888, 1340, 1250, 1041, 1402
 889, 1338,  131, 1402,  115
 890, 1338, 1221, 1250, 1220
 891, 1324, 1221, 1338, 1323
 892, 1338,  132, 1339, 1323
 893, 1338, 1402,  131, 1220
 894,  967,  508,  968,  477
 895,  967,  478, 1248,  509
 896,   11,  434,  101,  431
 897,  970,  431,  434,  969
 898,  967,   81,  477,  451
 899, 1442,  967,  970, 1248
 900,  967,  968, 1442,  969
 901,  969,  432,  433,  434
 902, 1196, 1186,  441, 1195
 903, 1195, 1188, 1186, 1532
 904, 1399, 1397, 1011, 1004
 905, 1004, 1399, 1010, 1007
 906, 1011, 1401,  738, 1008
 907, 1008,  738, 1011, 1004
 908, 1004, 1011, 1007, 1006
 909,  960, 1533, 1255, 1256
 910, 1181,  207,  206,  191
 911, 1469,  847,  816,  817
 912, 1183, 1186, 1532, 1184
 913, 1288, 1298,  227, 1227
 914, 1288, 1287,  960, 1298
 915,  960, 1255,  244, 1256
 916,  960, 1298,  228,  227
 917,  960, 1298,  244,  228
 918, 1341,  944,  945,   46
 919, 1376, 1377, 1534, 1380
 920, 1376, 1382, 1535, 1381
 921, 1376, 1536, 1379, 1381
 922, 1296, 1534, 1377, 1380
 923, 1536, 1537,  122, 1377
 924,  123, 1536, 1537,  122
 925, 1377,  138, 1534,  122
 926, 1376,  138, 1377, 1536
 927, 1413, 1480,  972,  145
 928, 1029, 1480, 1478, 1026
 929, 1480,  162, 1025,  972
 930, 1480, 1025,  146, 1027
 931, 1029, 1480, 1025,  972
 932, 1219, 1220, 1222, 1027
 933, 1256,  245,  244,  228
 934, 1219, 1402, 1220, 1479
 935, 1220, 1337,  148, 1221
 936,   99, 1340,  116,  100
 937, 1340, 1040, 1403, 1538
 938, 1324, 1323, 1338, 1339
 939, 1220, 1323,  148,  132
 940, 1445, 1446, 1447,  631
 941, 1444, 1207, 1450, 1445
 942, 1090,  332, 1502,  331
 943, 1090,  315,  332,  331
 944, 1083, 1085,  805,  836
 945, 1090, 1084, 1502, 1539
 946, 1090,  315, 1087,  316
 947, 1090, 1092, 1087, 1502
 948, 1263, 1418,  881,  850
 949, 1263, 1233, 1239, 1529
 950, 1263,  850, 1264, 1418
 951, 1369, 1540, 1541, 1370
 952, 1304, 1307, 1446, 1449
 953, 1444, 1450,  182, 1449
 954, 1444, 1445, 1293, 1207
 955, 1387,  197, 1310, 1308
 956,  181, 1444, 1308,  197
 957, 1303, 1305,  165, 1312
 958, 1304, 1305,  166,  165
 959, 1304, 1449,  166, 1307
 960, 1444, 1308, 1304,  181
 961, 1127,  675, 1128,  644
 962, 1178, 1455, 1141, 1439
 963, 1127, 1181, 1180, 1135
 964, 1397, 1398,  223,  238
 965, 1201, 1176, 1055, 1200
 966,  119, 1176, 1055, 1201
 967, 1176,  119, 1055,  118
 968, 1464, 1348, 1542, 1055
 969, 1055, 1200, 1542, 1203
 970, 1543,  788, 1544,  789
 971, 1543,  788, 1424, 1544
 972, 1543, 1427, 1424, 1545
 973, 1543, 1544, 1427, 1255
 974, 1543,  789, 1546,  790
 975, 1543,  790,  791, 1547
 976, 1543, 1548, 1255, 1549
 977, 1053, 1017, 1547, 1016
 978, 1499, 1017, 1014,  823
 979, 1051, 1017, 1053, 1016
 980, 1305,  150, 1550,  166
 981, 1305, 1321,  150,  149
 982, 1304,  165,  182,  181
 983, 1306, 1319, 1321, 1465
 984, 1551,  567, 1552,  598
 985, 1306, 1307,  570, 1303
 986, 1261, 1497, 1245,  322
 987, 1304,  182,  165,  166
 988, 1493,  979, 1521,  980
 989,  979, 1493,  456,  975
 990, 1493, 1521,  979, 1522
 991, 1487,  284,  301,  300
 992, 1521, 1522,  105,  979
 993, 1522,   15,  105,  424
 994, 1522,  105,   15,  419
 995, 1487, 1192, 1415, 1417
 996, 1193, 1487, 1192, 1415
 997, 1415, 1487, 1417,  284
 998, 1487, 1553, 1488, 1049
 999, 1487, 1488, 1553, 1489
1000, 1487,  300, 1417,  284
1001, 1487,  300, 1488, 1417
1002,  381,   47,  943,  944
1003,   22, 1359,  353,  368
1004, 1074,  913,  944,  943
1005, 1506, 1503,  376, 1504
1006,  376, 1506,  368, 1503
1007, 1359,   22,  353,  370
1008, 1359, 1500,  369,  408
1009, 1344, 1500, 1359,  408
1010,   20,  351,  375,   21
1011, 1454, 1383, 1384,  351
1012, 1474,   95,  111,  110
1013, 1383, 1503, 1454, 1385
1014, 1250,  512,  542,  511
1015, 1333,  985, 1275, 1327
1016, 1506, 1505,  353,  352
1017, 1506,  352, 1503, 1505
1018, 1503,  375,   21,  368
1019, 1072,  943,   48,  942
1020, 1506, 1504,  376,  367
1021, 1041, 1325, 1247, 1246
1022, 1246,  970,  432, 1248
1023, 1247, 1325,  100,  970
1024, 1249, 1403, 1247, 1041
1025, 1249, 1247,  436,  435
1026, 1246, 1248, 1325,  970
1027, 1246, 1324, 1248,  510
1028,  913, 1057, 1073, 1074
1029, 1096, 1367,  815,  846
1030, 1096, 1367,  846, 1554
1031, 1555,  813, 1367, 1556
1032, 1367, 1557,  814,  813
1033, 1555, 1367, 1558, 1556
1034, 1559, 1073, 1258, 1074
1035, 1258,  356, 1343,  340
1036, 1341, 1258, 1343, 1342
1037, 1257, 1258, 1073, 1057
1038, 1258,  340, 1343, 1495
1039, 1508, 1280, 1560, 1561
1040, 1280,  351, 1384,  366
1041, 1088,  283,  300,  299
1042, 1454, 1561, 1280, 1386
1043, 1280,  351, 1454, 1384
1044, 1560, 1508, 1485, 1279
1045, 1561, 1562, 1563,  892
1046, 1454, 1561, 1386,  923
1047, 1198,  443,  994,  488
1048,  418,  468,  421, 1297
1049, 1198, 1197, 1564, 1199
1050, 1198, 1199,  443,  442
1051,  487,  443,  444, 1198
1052,   91,  487,  443,  444
1053, 1189, 1198, 1194,  486
1054, 1198, 1194,  486,  487
1055, 1225, 1565, 1566, 1224
1056, 1225, 1567, 1003, 1223
1057, 1225, 1224, 1216, 1565
1058, 1215, 1218, 1225, 1216
1059,  999, 1225, 1003, 1223
1060,  999, 1003, 1225,  670
1061,  999, 1215, 1223, 1002
1062, 1534, 1067,  989, 1347
1063, 1520, 1534,  989, 1521
1064, 1296, 1520, 1534, 1380
1065, 1376, 1380, 1378, 1377
1066,   49,  941,  383,  410
1067, 1296, 1378, 1380, 1377
1068, 1568, 1194, 1197, 1414
1069, 1185, 1568, 1186,  114
1070, 1568,  113, 1186,  114
1071, 1568, 1188, 1197, 1194
1072, 1413, 1478, 1456, 1568
1073, 1478, 1185, 1568, 1569
1074, 1202,  564, 1067,  533
1075, 1375,  872,  903,  902
1076, 1228,  412,  932,  933
1077, 1159,  650,  681,  680
1078,  565,  564, 1570, 1202
1079,  940,  941,  383,   50
1080,  534, 1542, 1200, 1202
1081,  989, 1202, 1347, 1067
1082, 1542,  565, 1570, 1202
1083, 1121, 1202, 1067, 1347
1084,  342, 1252, 1559,  358
1085, 1252, 1559,  358, 1251
1086, 1072, 1559, 1251, 1075
1087, 1559,  358, 1251,  357
1088, 1251,   27,  384,  382
1089, 1251,  384,   27,  358
1090, 1251, 1252, 1571, 1253
1091, 1251, 1345,  410,  383
1092,  410, 1251, 1072, 1345
1093, 1492, 1269, 1274, 1273
1094, 1099, 1101, 1572, 1100
1095, 1238, 1419, 1257, 1263
1096, 1571, 1263, 1238, 1073
1097, 1421, 1226, 1263, 1264
1098, 1419, 1239, 1226, 1263
1099, 1233,  848, 1529,  849
1100, 1053, 1426, 1016, 1547
1101, 1421, 1545, 1426, 1264
1102, 1226, 1426, 1052, 1264
1103,  291, 1016,  292, 1549
1104, 1296,  105,  419,  106
1105, 1493, 1520,  470,  980
1106, 1426, 1547, 1545, 1549
1107, 1317,  651,  650,  620
1108,   40,  369,  951,  950
1109,  986, 1384,  401,  406
1110, 1280, 1279, 1560,  350
1111, 1384, 1383, 1454, 1386
1112, 1561, 1508, 1386,  925
1113, 1561, 1508, 1485, 1560
1114, 1081, 1368, 1078, 1573
1115, 1384, 1508, 1386, 1280
1116, 1383, 1386, 1384,  407
1117, 1386, 1384,  407,  401
1118, 1386, 1508,  401,  956
1119, 1386,  925, 1508,  956
1120, 1474,  110,  995,   95
1121, 1474,  997, 1475, 1527
1122, 1470, 1474,  126, 1412
1123, 1474, 1412,  995,  110
1124, 1559, 1238,  342,  341
1125, 1263, 1419, 1257, 1418
1126, 1571, 1263, 1073,  880
1127, 1559, 1258, 1257,  341
1128, 1559, 1257, 1238,  341
1129, 1234, 1239, 1233, 1236
1130, 1319, 1552,  568,  599
1131, 1082,  360,  387,  359
1132,  601, 1307,  570,  600
1133, 1464, 1319, 1463, 1552
1134, 1319, 1463, 1550, 1321
1135, 1080,  404,  384,  386
1136, 1319, 1552,  599, 1307
1137, 1552, 1319, 1463, 1550
1138, 1253, 1345,  383,  941
1139, 1087, 1502, 1092, 1372
1140,  805, 1083, 1086, 1085
1141, 1091, 1267, 1149, 1265
1142, 1089, 1417, 1086, 1085
1143, 1088, 1417,  300,  284
1144, 1080,  404,  383,  384
1145, 1564,  128, 1574,  112
1146, 1198, 1199, 1564,  994
1147, 1564, 1194, 1477, 1414
1148, 1564,  113, 1197, 1414
1149, 1564, 1197,  113,  112
1150, 1019, 1549,  275,  259
1151,   96, 1199,  112, 1197
1152, 1199,  112, 1197, 1564
1153,  982,  981,  990,  984
1154,  991,  990,  981,  423
1155,  981,  984,  983,  493
1156,  981, 1575,  493,  494
1157, 1214,  990,  981, 1211
1158,  981,  494, 1211, 1575
1159, 1496,   24,  355,  377
1160, 1496,  372,   24,  377
1161, 1346, 1435,  946, 1342
1162, 1346, 1496,  373, 1435
1163, 1496, 1343,  355, 1495
1164, 1496, 1356, 1495, 1576
1165,  373, 1355,  947, 1435
1166, 1344,  949, 1500,  408
1167,  962,  958, 1232,  957
1168, 1514, 1577,  550,  551
1169, 1242, 1354, 1494,  917
1170,  939,  938,   52,  386
1171,  392,  361,  389, 1231
1172, 1491, 1231, 1232,  345
1173, 1231,  361, 1232,  345
1174,  962,  957,  388,  958
1175, 1156,  650,  649,  619
1176, 1228, 1229,  932,  412
1177,  957, 1228,  961,  934
1178, 1231, 1079, 1232,  361
1179, 1397, 1011, 1401, 1399
1180,  739, 1011, 1174, 1401
1181, 1401,  739, 1389,  709
1182, 1120,  203, 1160,  219
1183, 1401, 1389,  708, 1400
1184, 1401, 1389,  739,  708
1185, 1507, 1390, 1398,  238
1186, 1397, 1398, 1399, 1401
1187, 1406,  711, 1407, 1060
1188, 1401, 1407,  709, 1389
1189, 1406, 1190, 1174,  741
1190, 1406,  741, 1407,  710
1191, 1406, 1407,  711,  710
1192, 1507, 1407, 1390, 1302
1193, 1351, 1441, 1407,  679
1194, 1174, 1401, 1407,  709
1195, 1062, 1409, 1302, 1407
1196, 1149, 1502, 1087, 1372
1197, 1148, 1149, 1372, 1502
1198, 1334, 1332, 1502,  347
1199,  315, 1149, 1502, 1087
1200, 1149, 1541, 1540,  314
1201, 1423,  849, 1263, 1529
1202,  151,  168, 1122,  167
1203, 1226, 1426, 1016, 1052
1204, 1421, 1545, 1424, 1427
1205, 1264, 1545,  820,  819
1206,  820, 1264, 1053, 1545
1207,  422,  990,  423,  415
1208,  990, 1481,  108, 1482
1209, 1481,  455, 1578, 1212
1210,  417, 1481, 1578,   17
1211, 1481,  107,   17,  415
1212, 1212,  416, 1481,  455
1213, 1481, 1482,  107,  108
1214,  938,  937,   53,  385
1215, 1482, 1214,  990, 1481
1216, 1210, 1481, 1212,  416
1217, 1579, 1301,  697,  666
1218, 1579, 1301, 1298, 1291
1219, 1078,  343,  344,  360
1220,  666, 1579, 1388,  665
1221, 1299, 1387, 1301, 1300
1222, 1387, 1301, 1300, 1579
1223, 1579, 1387, 1301, 1388
1224, 1579, 1580,  695, 1581
1225, 1579, 1580,  696,  695
1226, 1432, 1059,  745, 1433
1227, 1059, 1151,  745,  714
1228, 1058, 1064, 1061, 1060
1229, 1059, 1119,  715,  714
1230,  683, 1065, 1061, 1119
1231, 1037, 1038, 1059, 1119
1232, 1363, 1010, 1362, 1582
1233, 1432, 1434, 1415,  267
1234, 1343, 1495,  356,  355
1235, 1343,   25,  356,  379
1236, 1343,  377,   25,  379
1237, 1080, 1081, 1252, 1253
1238, 1341,  945,   45,   46
1239, 1075, 1341,  381, 1074
1240, 1341, 1343,  378,  409
1241,  947, 1435,  946,  373
1242, 1341,  409,  378,   45
1243, 1074, 1057, 1073, 1258
1244, 1038,  747, 1151,  716
1245, 1152, 1038,  747, 1151
1246,  717, 1033, 1440, 1038
1247, 1095,  716, 1038,  717
1248, 1059,  715, 1038, 1151
1249, 1037, 1059, 1038, 1151
1250, 1063, 1037, 1058, 1059
1251,  988, 1038,  685, 1451
1252, 1037, 1119,  988, 1038
1253, 1454, 1280, 1384, 1386
1254, 1561, 1583,  892, 1563
1255, 1562, 1584,  890,  921
1256,  890, 1562, 1585, 1584
1257, 1562,  891, 1585,  892
1258, 1454, 1562, 1505, 1563
1259, 1562, 1385, 1505, 1504
1260, 1562, 1584,  921, 1504
1261,  223,  239, 1357, 1361
1262, 1314, 1459,  617, 1392
1263, 1460, 1137, 1135,  190
1264, 1391, 1135, 1181,  206
1265, 1106, 1205,  721,  720
1266, 1586, 1104, 1042, 1034
1267, 1036, 1097, 1106, 1105
1268, 1570,  566,  597,  596
1269,  644, 1179, 1126, 1124
1270, 1127, 1178, 1128,  675
1271, 1124, 1127, 1136, 1128
1272, 1178, 1366, 1455, 1439
1273, 1542,  566,  565,  535
1274, 1365,  735, 1364,  734
1275, 1365, 1565, 1566,  703
1276, 1436, 1366, 1365,  704
1277, 1365, 1357, 1361, 1439
1278, 1365, 1565, 1364, 1443
1279,   15,  105,  106,  419
1280,  734, 1365, 1565, 1364
1281, 1110, 1274,  753, 1587
1282, 1110, 1274,  722,  753
1283,  937,   54,   53,  411
1284, 1587, 1107, 1109, 1110
1285, 1504,  921,  951,  920
1286, 1106,  721, 1110, 1274
1287, 1103, 1105, 1106, 1274
1288, 1103, 1105, 1112,  247
1289, 1103, 1110, 1106, 1205
1290, 1108, 1109, 1110,  691
1291, 1295,  694, 1115,  693
1292, 1295, 1115,  725, 1588
1293, 1293, 1295,  663, 1580
1294, 1295, 1580,  694,  663
1295, 1295, 1113, 1115, 1588
1296, 1294, 1295, 1580, 1300
1297, 1295,  695, 1580, 1581
1298, 1294, 1295, 1300, 1113
1299, 1481, 1214,  990,  415
1300,  990,  124, 1482,  108
1301,  124, 1164,  984,  990
1302,  981, 1211,  990,  984
1303, 1214,  990, 1211, 1482
1304,  990,  422,  982,   18
1305,   18,  415,  990,  422
1306,  982,  990,  991,  422
1307,  990,  984,  108,  109
1308,  135,  151, 1203, 1463
1309,    6,  445,   96,  442
1310, 1198, 1194, 1564, 1197
1311, 1198, 1564, 1477,  994
1312, 1347, 1201, 1203,  977
1313, 1145, 1467, 1317,  621
1314,  994,  992,  460,  993
1315,  993,  994,  443,  460
1316, 1589, 1265, 1590, 1540
1317, 1094, 1153, 1155, 1267
1318, 1555, 1099, 1572, 1100
1319, 1094, 1267,  282, 1153
1320, 1249,  439, 1187,  438
1321, 1340, 1338, 1402,  115
1322,  458,  435, 1247, 1246
1323, 1247,  458,  434,  436
1324,   10, 1403, 1247,  436
1325, 1403,    9,   10,  100
1326, 1403,    9,  439,  436
1327, 1004, 1009, 1012, 1286
1328, 1591, 1285, 1012, 1582
1329, 1009, 1592, 1363,  767
1330, 1136, 1178, 1141, 1128
1331, 1136, 1138, 1128, 1141
1332, 1136, 1138, 1141,  176
1333, 1455,  192, 1141, 1439
1334, 1139, 1438, 1141, 1437
1335, 1070, 1382,  154, 1068
1336, 1593, 1145, 1071, 1147
1337, 1593, 1071, 1145, 1594
1338, 1071, 1050, 1146, 1595
1339, 1595, 1071, 1050,  998
1340, 1282,  831,  801,  832
1341, 1593, 1147, 1071,  186
1342, 1071, 1048,  185, 1147
1343, 1234, 1236, 1235,  326
1344, 1233, 1529, 1236, 1239
1345, 1096, 1236,  847, 1529
1346, 1104, 1106, 1034, 1586
1347, 1096,  847, 1236, 1237
1348, 1362,  240,  241,  257
1349, 1209, 1206,  214,  215
1350, 1236,  327, 1235,  326
1351, 1558, 1236,  327, 1235
1352, 1558, 1236, 1096,  311
1353, 1498, 1497,  339, 1356
1354, 1498, 1495,  339,  340
1355, 1468, 1494, 1498, 1056
1356, 1498, 1356, 1494, 1497
1357, 1056, 1498, 1054, 1057
1358, 1294, 1387, 1580, 1447
1359, 1444, 1294, 1387,  197
1360, 1308,  197, 1310,  181
1361, 1310,  197,  180,  181
1362, 1310, 1387, 1388, 1396
1363, 1111,  245, 1113,  246
1364,  723, 1109,  722, 1587
1365, 1107, 1111, 1587, 1115
1366, 1111, 1272,  262, 1112
1367, 1111, 1272, 1112, 1587
1368, 1568,  113, 1197,   97
1369, 1186,  113,   97,  114
1370, 1501,  734,  765,  764
1371, 1242, 1596, 1530, 1244
1372, 1185, 1186, 1184,  114
1373,   97,  441,    7, 1196
1374,  936,  935,   55,  388
1375, 1186, 1184,  441, 1532
1376, 1046, 1586,  658,  659
1377, 1597, 1021, 1208, 1046
1378, 1046, 1022,  626,  657
1379, 1044, 1047,  200, 1045
1380,  957,  935,   56,  934
1381, 1046, 1045, 1586, 1047
1382, 1301,  666, 1579, 1388
1383, 1388, 1410,  666,  635
1384, 1579, 1300, 1387, 1580
1385,  664, 1388, 1308, 1580
1386, 1388,  665, 1580,  664
1387, 1388, 1410,  635, 1311
1388, 1388, 1598, 1410, 1311
1389, 1388, 1311,  633, 1308
1390, 1178, 1366,  705,  706
1391, 1436, 1366,  704,  705
1392, 1391, 1180, 1181, 1135
1393, 1351, 1159, 1441,  679
1394, 1141, 1178, 1436, 1128
1395, 1350, 1351, 1158, 1390
1396, 1408, 1507, 1399,  254
1397, 1174, 1011,  770, 1006
1398, 1351, 1302, 1407, 1441
1399, 1390, 1391,  221, 1158
1400, 1398, 1389, 1401, 1400
1401, 1507, 1409, 1407, 1302
1402, 1268, 1555, 1572, 1557
1403, 1268, 1270, 1271, 1599
1404, 1271, 1272,  279,  278
1405, 1131, 1524, 1523, 1182
1406, 1129, 1524, 1583, 1600
1407, 1394, 1000, 1393, 1410
1408, 1394, 1410,  635,  636
1409, 1118, 1144, 1145, 1467
1410,  574,  605, 1222, 1336
1411, 1394, 1028,  606, 1222
1412, 1394, 1598, 1337, 1336
1413, 1394, 1395, 1028, 1337
1414, 1393, 1395, 1394, 1396
1415,  683, 1162, 1061, 1065
1416, 1317,  620,  621,  651
1417,  618, 1156, 1165, 1166
1418, 1156, 1166,  618,  649
1419, 1161, 1162, 1467, 1160
1420, 1321, 1462, 1319, 1463
1421, 1322, 1326, 1339, 1320
1422, 1322, 1320, 1339, 1323
1423, 1306, 1323, 1322,  133
1424, 1084, 1092,  868,  837
1425, 1084, 1085,  835, 1601
1426,  837, 1084, 1083,  836
1427, 1084, 1539, 1602, 1601
1428, 1044,  184, 1597, 1122
1429, 1586, 1045, 1046,  657
1430, 1104, 1586, 1204, 1205
1431, 1493,  420,  470,  469
1432, 1211, 1603, 1482, 1164
1433, 1211, 1575,  494,  495
1434, 1050, 1023, 1595,  998
1435,  981,  463, 1211,  494
1436, 1211, 1482,  990, 1164
1437, 1452, 1416, 1415, 1192
1438, 1405, 1191, 1193, 1049
1439, 1406, 1192,  741,  742
1440, 1452, 1406, 1060,  743
1441, 1491, 1231,  345,  361
1442, 1416, 1192,  774, 1489
1443, 1192, 1417, 1416, 1415
1444, 1487, 1489, 1192, 1417
1445, 1589, 1155, 1094, 1098
1446, 1091, 1265, 1086, 1267
1447, 1086, 1416, 1267, 1265
1448, 1155, 1265, 1589, 1267
1449, 1589, 1265, 1540, 1267
1450, 1265, 1590, 1540, 1266
1451, 1265, 1590, 1266,  809
1452, 1604, 1605, 1382, 1535
1453, 1604, 1381, 1382, 1594
1454, 1604, 1606, 1607, 1535
1455, 1118, 1065, 1467,  683
1456, 1604, 1606,  558, 1608
1457, 1604, 1607, 1606, 1608
1458,  379, 1075,   26,  356
1459, 1604, 1594,  560, 1381
1460, 1070, 1382, 1068, 1069
1461, 1070, 1595, 1071, 1382
1462, 1593, 1071, 1594, 1382
1463, 1382, 1535, 1605,  155
1464, 1382, 1594, 1069, 1595
1465, 1382, 1605,  171,  155
1466, 1209,  215,  214,  198
1467, 1593, 1382, 1594, 1605
1468,  171, 1382, 1593, 1605
1469, 1004, 1397, 1011, 1008
1470, 1011, 1401,  739,  738
1471, 1397, 1010, 1004, 1399
1472, 1008,  707, 1177, 1400
1473, 1397, 1401, 1008, 1400
1474, 1361,  207, 1398, 1181
1475,  706, 1008,  707, 1177
1476, 1008,  707, 1400,  738
1477, 1029,  972, 1025, 1031
1478, 1029, 1025, 1480, 1026
1479, 1079,  389,  360,  361
1480, 1025,  972,  162, 1142
1481, 1024, 1222, 1027, 1026
1482, 1337, 1028, 1222, 1027
1483, 1028, 1025, 1027, 1337
1484, 1025,  163, 1027, 1337
1485, 1025, 1395, 1142,  162
1486,  163, 1025,  146,  162
1487, 1480, 1025, 1027, 1026
1488,  289, 1134,  273, 1591
1489,  289, 1609, 1259, 1134
1490, 1132, 1610,  794, 1133
1491, 1611, 1134,  273, 1020
1492, 1610, 1134, 1132, 1501
1493, 1134, 1591,  289, 1609
1494, 1611, 1582,  273, 1134
1495,  257, 1611, 1582,  273
1496, 1611, 1134, 1133, 1610
1497, 1431,  875, 1612, 1429
1498, 1428,  906, 1368, 1077
1499, 1430, 1431, 1232, 1375
1500, 1464, 1542, 1348,  536
1501, 1348, 1542, 1055, 1200
1502, 1202, 1542, 1200, 1203
1503, 1542,  535,  565,  534
1504, 1566, 1224, 1565, 1443
1505, 1436, 1438,  673,  672
1506, 1566, 1438,  672,  641
1507, 1225,  702, 1566, 1565
1508, 1566, 1437, 1443, 1439
1509, 1058, 1064, 1062,  236
1510, 1090, 1539,  332, 1602
1511, 1488, 1601, 1553, 1085
1512, 1488, 1601, 1130, 1553
1513, 1488, 1553, 1130, 1049
1514, 1488, 1602,  317, 1130
1515, 1488, 1602,  316,  317
1516,  962,  936,  905,  906
1517, 1019, 1453, 1018, 1448
1518, 1610, 1453, 1611, 1613
1519, 1610, 1217, 1453, 1613
1520, 1084,  868, 1614,  867
1521, 1614, 1327, 1329, 1334
1522, 1614, 1502, 1539, 1334
1523, 1090,  332, 1539, 1502
1524, 1614, 1329,  899,  868
1525, 1614, 1329,  898,  899
1526,  969,  967,  970, 1442
1527, 1030,  968,  507,  476
1528, 1442, 1326,  508,  967
1529,  451, 1461,  430,  968
1530, 1466,  507,  968,  508
1531,  968,  967, 1442,  508
1532, 1478, 1185, 1479, 1456
1533, 1478, 1569,  547,  516
1534, 1413, 1478, 1568, 1569
1535, 1478, 1026, 1479,  545
1536,  516, 1478, 1185,  515
1537, 1131, 1523, 1282, 1283
1538, 1191, 1528,  803, 1553
1539, 1191, 1049, 1528, 1553
1540, 1191, 1489,  804,  773
1541, 1404, 1523,  771,  772
1542, 1404,  771, 1523,  801
1543, 1046, 1586, 1208, 1047
1544, 1597, 1047, 1046, 1208
1545, 1044, 1021, 1023, 1122
1546, 1047, 1208, 1450, 1209
1547, 1586, 1208, 1047, 1204
1548, 1586, 1205,  689,  690
1549, 1047, 1208, 1209, 1204
1550, 1477,  519, 1514,  550
1551, 1513, 1577, 1514, 1515
1552, 1513, 1477, 1414, 1515
1553, 1514, 1515, 1564, 1477
1554,  949,  408,  371,   41
1555, 1259, 1134, 1609, 1132
1556, 1012, 1591, 1592, 1281
1557, 1609, 1591,  289, 1615
1558, 1615,  288, 1591,  289
1559, 1132, 1501,  795, 1610
1560, 1242, 1468,  886, 1494
1561, 1494,  886,  916,  885
1562,  961,  935,  934,  904
1563,  916, 1056, 1435, 1494
1564, 1494, 1354, 1356, 1435
1565, 1523, 1528, 1182,  802
1566, 1528, 1553, 1130, 1601
1567, 1528, 1553,  834,  803
1568,  804, 1191, 1553, 1489
1569,  833,  802,  863, 1182
1570, 1528, 1616, 1130, 1182
1571, 1597, 1551, 1122, 1550
1572, 1551, 1570,  597, 1617
1573, 1551, 1617, 1597, 1570
1574, 1570, 1202, 1123, 1542
1575, 1570,  566, 1542, 1551
1576, 1190, 1406, 1193, 1192
1577, 1408, 1011, 1007, 1399
1578, 1005, 1012,  799, 1281
1579, 1007, 1174, 1006, 1011
1580, 1190, 1174,  740, 1404
1581, 1005, 1283, 1007,  271
1582, 1100, 1572, 1557, 1101
1583, 1123, 1122, 1121, 1349
1584, 1555, 1572,  296,  295
1585, 1099, 1540, 1589, 1590
1586, 1268, 1269, 1572, 1273
1587, 1501,  765,  796,  795
1588, 1397, 1361, 1008, 1010
1589, 1399, 1007,  270,  255
1590, 1073,  881, 1418,  882
1591, 1501,  765,  795,  764
1592, 1004, 1007, 1011, 1399
1593, 1408, 1399,  270,  254
1594, 1116, 1146, 1147, 1117
1595,  934,   57,   56,  390
1596, 1147, 1116, 1145, 1146
1597, 1351, 1158, 1302, 1441
1598,  977,  472,  502,  471
1599, 1391,  206, 1460, 1135
1600,  473,  427,   78,   77
1601,   72,  421,  418,  468
1602, 1391, 1158, 1163,  205
1603, 1262, 1615,  305,  304
1604, 1177, 1361, 1008, 1400
1605,  241,  225, 1613,  242
1606, 1127, 1178, 1177, 1455
1607, 1180,  708, 1400,  707
1608, 1490,  870, 1374,  901
1609,   19,   18,  109,  982
1610, 1564, 1414,  112,  113
1611, 1398, 1181, 1389, 1400
1612,  462,  454,  983,  991
1613, 1397,  239,  238,  223
1614, 1351, 1390, 1407, 1302
1615, 1353,  708, 1389, 1400
1616, 1285,  288,  287,  271
1617, 1127, 1181, 1135,  191
1618, 1181, 1135,  191,  206
1619, 1177, 1361, 1181, 1455
1620,  441, 1186,   97,   98
1621, 1179,  677, 1180,  676
1622, 1118,  652, 1145,  653
1623,  988, 1116,  653, 1118
1624, 1146, 1117,  654,  655
1625, 1436, 1365, 1366, 1439
1626, 1594,  592,  591,  561
1627,  988,  653, 1116,  654
1628,  972,  162, 1142,  161
1629, 1070, 1382, 1069, 1595
1630, 1131, 1283,  287,  302
1631, 1131, 1049, 1283,  302
1632, 1405, 1523, 1049, 1283
1633, 1195, 1188, 1532,  484
1634, 1588,  726, 1581,  727
1635, 1315,  172,  188,  171
1636, 1048,  184,  185,  201
1637, 1421,  293, 1425, 1422
1638, 1518, 1511, 1618,  156
1639, 1126,  645,  614,  615
1640, 1360, 1357, 1361, 1365
1641, 1586,  658,  689,  688
1642, 1405, 1283,  286, 1007
1643, 1400,  738,  707,  708
1644, 1260,  828,  858,  827
1645, 1191, 1487, 1192, 1193
1646, 1524, 1600,  861, 1583
1647, 1600, 1526,  861, 1585
1648, 1284, 1285,  287, 1283
1649, 1129, 1600, 1563,  319
1650, 1129, 1563, 1600, 1583
1651, 1113,  213,  214,  230
1652, 1543, 1547, 1548, 1549
1653, 1543, 1545, 1547, 1549
1654, 1013, 1548, 1547, 1549
1655, 1053, 1426, 1547, 1545
1656, 1597,  168, 1122,  184
1657, 1547, 1017, 1013, 1016
1658, 1017, 1013, 1014, 1547
1659, 1357, 1010,  239,  240
1660, 1344,  371,  370,  372
1661, 1262, 1244, 1584, 1531
1662, 1357, 1365, 1443, 1439
1663, 1054, 1051, 1420, 1498
1664, 1361,  208, 1439,  224
1665, 1361, 1455,  208,  207
1666, 1360, 1366, 1361, 1008
1667, 1177, 1008, 1361, 1366
1668, 1398, 1400, 1361, 1181
1669,  992,  997,  489,  490
1670, 1361, 1439, 1455, 1366
1671, 1177, 1361, 1455, 1366
1672, 1357, 1010,  240, 1362
1673, 1357, 1361, 1439,  224
1674, 1021, 1570, 1617,  597
1675,   96,  445,    5,   95
1676, 1570, 1617, 1597, 1021
1677,  993,  446,  460,  445
1678, 1044, 1122, 1023, 1050
1679, 1619,  842, 1612, 1371
1680, 1430, 1619, 1612, 1371
1681, 1430, 1431,  873, 1612
1682, 1431,  873, 1612,  874
1683, 1620, 1473,  553, 1475
1684,  453,  109,   19,  110
1685, 1558, 1612, 1556,  844
1686, 1129, 1182, 1486, 1560
1687,   58,  932,  412,  933
1688, 1577, 1620,  551, 1514
1689, 1350, 1351, 1390, 1353
1690, 1129, 1560,  334,  319
1691, 1525, 1129,  303, 1600
1692, 1350, 1391, 1352, 1353
1693, 1129, 1182, 1130, 1486
1694, 1030,  505,  475,  506
1695, 1129, 1131, 1130, 1182
1696, 1595,  594,  624,  593
1697, 1262, 1525, 1600, 1526
1698, 1262, 1600, 1585, 1526
1699, 1284, 1526, 1281,  830
1700, 1347, 1203,  152, 1121
1701, 1284, 1525, 1526, 1524
1702, 1525, 1526, 1615, 1281
1703, 1131, 1524, 1282, 1523
1704, 1300,  229,  212,  213
1705, 1525, 1524, 1600, 1526
1706, 1526, 1524,  830, 1284
1707, 1364, 1501, 1613, 1565
1708, 1197,  113,   96,   97
1709,  961,  903,  933,  902
1710, 1423,  787, 1424,  818
1711,  733,  734, 1565, 1501
1712, 1148, 1149,  314, 1541
1713, 1357, 1443, 1364, 1362
1714, 1364,  765, 1501,  734
1715, 1364, 1501, 1362, 1613
1716, 1523, 1191,  772, 1404
1717, 1347,  153,  136,  137
1718, 1566,  640,  641,  671
1719,  483,   87,  437,  459
1720, 1191, 1192, 1487, 1489
1721, 1553, 1489, 1488, 1085
1722,  803,  804, 1191, 1553
1723, 1162,  650,  651,  681
1724, 1475,  551,  520,  521
1725, 1219,  545,  544,  514
1726, 1073,  882,  912,  881
1727, 1266,  840,  839,  809
1728, 1065, 1118, 1120, 1119
1729, 1219, 1222,  543,  544
1730, 1250, 1219, 1221,  543
1731, 1621,  622,  621,  591
1732, 1161,  204,  187,  188
1733, 1340, 1538, 1403,   99
1734, 1092,  837, 1084, 1083
1735, 1284, 1283, 1131, 1282
1736, 1447,  662,  632,  663
1737, 1340, 1338,  115,  116
1738, 1064,  235,  219,  236
1739, 1459, 1172, 1126, 1137
1740, 1187, 1403,  439, 1249
1741,  482, 1249, 1040, 1187
1742, 1057, 1341, 1074,  913
1743, 1445,  630,  660,  629
1744, 1113,  229,  230,  246
1745, 1183,  483, 1187, 1184
1746, 1186,   98, 1184,  114
1747,  483, 1532, 1184, 1183
1748, 1249, 1040, 1403, 1041
1749, 1356, 1358,  338,  354
1750, 1040, 1538, 1184, 1403
1751, 1249,  481, 1040, 1041
1752, 1598,  180,  163,  164
1753, 1187,  513,  483,  514
1754, 1000, 1410, 1001, 1299
1755, 1593,  186, 1144, 1147
1756, 1357,  224,  240,  223
1757, 1294, 1387, 1300, 1580
1758, 1187,  482,  483,  513
1759, 1161, 1158,  204, 1163
1760, 1216,  209,  226,  225
1761, 1405,  286, 1049,  285
1762, 1127, 1180,  676, 1179
1763, 1363, 1592, 1501,  765
1764, 1391,  205, 1460,  206
1765, 1382,  154,  171,  170
1766, 1351, 1159, 1158, 1441
1767, 1158, 1163,  205,  204
1768, 1350, 1158, 1159, 1163
1769, 1292,  242, 1453, 1217
1770, 1351, 1390, 1302, 1158
1771, 1157,  220, 1158, 1302
1772, 1187,  439,  437,  438
1773, 1477,  548, 1569,  517
1774,  977, 1202,  503, 1200
1775, 1472,  111,  127,  126
1776,   96,    6,    5,  445
1777,  447,   95,  110,    1
1778,  445,   96,  442, 1199
1779, 1347,  137,  136,  120
1780, 1292, 1170,  242,  243
1781, 1159, 1441,  679,  680
1782,  994,  518,  488,  519
1783, 1474, 1412,  110,  126
1784, 1352, 1459,  646, 1126
1785, 1053, 1426, 1545, 1264
1786,  793,  794, 1018, 1313
1787, 1423, 1529,  818,  849
1788, 1189, 1197,  442, 1196
1789, 1419, 1264, 1263, 1226
1790, 1419, 1226, 1052, 1264
1791, 1421, 1529, 1239, 1422
1792, 1199,   95,  445,   96
1793, 1421, 1226, 1422, 1239
1794, 1421, 1545, 1264,  819
1795, 1053, 1426, 1264, 1052
1796,  932,  931,   59,  393
1797, 1226, 1239,  309, 1422
1798, 1404,  801, 1523, 1282
1799,   98,  439,   99,    8
1800, 1409, 1190, 1174, 1406
1801, 1405, 1404, 1191, 1523
1802, 1452, 1060, 1434, 1433
1803, 1196,   97,    6,    7
1804, 1406,  712, 1060,  743
1805, 1407, 1441, 1060,  711
1806, 1406,  711, 1060,  712
1807, 1174, 1404, 1006,  770
1808,  441, 1532, 1184,  459
1809, 1009,  737, 1008,  768
1810, 1004, 1010, 1009, 1286
1811, 1010, 1286,  255,  256
1812, 1010,  255, 1286, 1007
1813, 1335, 1336, 1309,  572
1814,  770,  739, 1011, 1174
1815, 1397,  239, 1399,  254
1816, 1360,  766,  736,  767
1817, 1009,  767, 1012, 1592
1818, 1249,  481,  438,  482
1819, 1471, 1518, 1476,  141
1820, 1466,  508,  538,  507
1821, 1338,  132,  115,  116
1822,    8,  439,   99,    9
1823, 1516, 1512, 1509, 1518
1824, 1248,  479,  509,  478
1825, 1512, 1471, 1518, 1516
1826, 1139, 1566, 1437, 1567
1827, 1175,  103,  429,   13
1828, 1139, 1567,  177, 1142
1829, 1403,   99,  439,    9
1830, 1139, 1566, 1567, 1003
1831, 1567,  194, 1223, 1224
1832, 1403,  436,   10,    9
1833, 1225, 1566,  671, 1003
1834, 1254, 1544, 1255, 1427
1835, 1190,  741, 1192,  772
1836, 1523, 1282,  801,  832
1837, 1190, 1406, 1192,  741
1838,  476,  475,  430,   80
1839, 1369, 1541, 1148, 1373
1840, 1408,  253, 1507,  254
1841, 1460, 1459, 1126, 1137
1842, 1179, 1353, 1180,  677
1843,  434,  101,   10,   11
1844,  648,  647, 1351, 1350
1845, 1352, 1179,  646,  677
1846, 1325,  100,  101,  117
1847, 1525, 1615,  304,  288
1848, 1525, 1129, 1600, 1524
1849,  431,  102,  101,   11
1850,  967,  508,  477,  478
1851, 1262, 1525,  304, 1600
1852, 1297, 1522,  419,  105
1853, 1487,  285, 1193, 1049
1854, 1487,  285, 1049,  301
1855,  760,  729,  759, 1546
1856, 1379,  498,  528,  497
1857, 1089,  300, 1488,  316
1858, 1488, 1602, 1089,  316
1859, 1487,  301, 1488,  300
1860, 1020,  273, 1611,  274
1861, 1444, 1304, 1447, 1446
1862, 1123,  151, 1122, 1550
1863,  978,  428,  425,  426
1864, 1055, 1203,  135,  119
1865,  431,   12,  102,   11
1866,  429,  102,   12,  103
1867,  990, 1164,  984, 1211
1868, 1481,  107, 1482, 1537
1869, 1170,  242,  243,  259
1870,   14,  426,   13,  104
1871,  429,  103,   12,   13
1872, 1211, 1575, 1164,  984
1873, 1482, 1164, 1603, 1536
1874, 1378, 1379, 1377, 1537
1875, 1322,  134, 1321,  133
1876, 1121, 1067,  998, 1347
1877, 1322, 1325, 1326, 1442
1878, 1570,  595,  565,  596
1879, 1322, 1466, 1326, 1465
1880, 1067,  533,  563,  532
1881,  453,   19,    1,  110
1882, 1466,  539, 1326, 1465
1883, 1348, 1030,  507,  506
1884, 1466, 1465,  538,  539
1885,   60, 1328,  397,  403
1886, 1470,  126,  142,  125
1887,  975,   76,  425,  428
1888, 1201,  119,  103,  120
1889,  977, 1521, 1347, 1201
1890,  537, 1462, 1319,  538
1891, 1461, 1466, 1176, 1030
1892,   71, 1212,  418,  455
1893, 1466,  968, 1442,  508
1894, 1114, 1294,  214, 1113
1895, 1294,  214, 1113,  213
1896, 1294,  213, 1113, 1300
1897, 1113, 1300,  229, 1256
1898,  459, 1184, 1187,  483
1899, 1450,  199,  182,  183
1900,  960, 1255,  243,  244
1901, 1114, 1295, 1113, 1115
1902,   14,  424,  105,   15
1903, 1195,  440,  485,  484
1904, 1114, 1295, 1115,  693
1905, 1157, 1162, 1065, 1061
1906, 1473,  984, 1575,  493
1907,  461,   65,  448,  454
1908, 1473,  493, 1575,  524
1909, 1065, 1064,  219, 1160
1910, 1064, 1160,  220,  219
1911, 1061, 1058, 1063, 1064
1912, 1565, 1217,  701,  732
1913,  681, 1157, 1441, 1061
1914, 1538, 1184, 1403,   99
1915, 1162,  683,  652, 1467
1916, 1578,  417,   17,   16
1917,  481,  482, 1249, 1040
1918, 1578,   16,  419,  417
1919, 1062, 1409, 1452,  252
1920, 1061, 1060,  681,  712
1921, 1061, 1060,  712,  713
1922, 1578,  106,  419,   16
1923, 1065, 1120, 1467, 1160
1924, 1210,  414,   68, 1214
1925, 1162,  682, 1061,  681
1926,  463, 1211, 1214,  981
1927, 1578,   16,   17,  107
1928, 1380,  500,  501,  531
1929, 1474,  126,  110,  111
1930, 1415,  268, 1193,  284
1931, 1191, 1487, 1193, 1049
1932, 1405, 1193,  285, 1049
1933, 1299, 1410, 1396, 1393
1934,  984,  108,  109,  125
1935, 1569, 1478, 1185,  516
1936, 1194,  517,  516,  486
1937,  999, 1223, 1003, 1000
1938,  999, 1225, 1218,  670
1939, 1164, 1482,  990,  124
1940, 1215, 1225, 1223, 1224
1941, 1225, 1567, 1223, 1224
1942,  990,  108,  984,  124
1943,   18,  108,  415,   17
1944, 1215,  226, 1216,  210
1945, 1215,  194, 1002,  210
1946, 1393, 1000, 1223, 1002
1947,  978,  976,  428,  427
1948,   18,  422,  982,   19
1949, 1214,   68,  423,  414
1950, 1173,  976, 1175,  427
1951, 1176, 1175, 1201,  119
1952, 1175, 1201,  119,  103
1953,  978, 1175,  426,  979
1954, 1175,  104, 1201,  103
1955, 1175, 1461,  102, 1176
1956, 1254, 1544, 1256, 1255
1957, 1461, 1175, 1173, 1176
1958,   13, 1175,  104,  426
1959,  449,  992,  447,  446
1960, 1175,  426,   13,  429
1961, 1505,  337,  353,  336
1962, 1368, 1554,  877,  876
1963, 1368,  875, 1554,  876
1964,  984,  108,  125,  124
1965, 1431,  874, 1612,  875
1966, 1429,  875, 1368, 1428
1967, 1351, 1407, 1389,  678
1968, 1353, 1352, 1179, 1391
1969, 1472,  142,  126,  127
1970,  992,  995,  994,  997
1971, 1453,  242, 1613, 1217
1972, 1350,  617, 1166,  648
1973, 1160, 1162, 1065, 1157
1974, 1478, 1185, 1456, 1568
1975, 1533, 1255, 1287,  960
1976, 1351,  648, 1159,  679
1977, 1197,   96,  113,  112
1978, 1158, 1161, 1160, 1157
1979, 1390, 1158,  221, 1302
1980, 1546,  790,  791, 1543
1981, 1165, 1318, 1314, 1166
1982,  960,  227,  228,  244
1983, 1136, 1178, 1455, 1141
1984, 1124, 1135, 1137,  175
1985,  348, 1330,  347,  364
1986, 1538,  114,   98,  115
1987,  116,   99,  115, 1340
1988, 1327,  395,   33,  398
1989, 1177,  706, 1178,  675
1990, 1330, 1331, 1332,  363
1991, 1177, 1180, 1181, 1400
1992, 1178, 1128,  675,  674
1993, 1058, 1063, 1064,  235
1994,  617,  616, 1350, 1392
1995,  398, 1327,  987,  985
1996, 1455, 1439,  208,  192
1997, 1339,  133,  132,  116
1998, 1124, 1179, 1137, 1135
1999, 1306, 1322, 1320, 1465
2000, 1391, 1158,  205,  221
2001, 1030,  430,  476,  475
2002, 1176,  102,  103,  119
2003, 1176,  102,  119,  118
2004, 1361,  208, 1455, 1439
2005, 1038, 1119,  684,  715
2006,  988, 1043, 1038, 1451
2007, 1059, 1061,  713, 1060
2008, 1059,  683, 1119,  714
2009, 1521, 1297, 1493, 1520
2010, 1216,  225,  226,  242
2011, 1199,   95, 1527,  995
2012, 1324, 1339, 1325, 1326
2013, 1198, 1477, 1564, 1194
2014,  975,  456,  425,   75
2015, 1568, 1414, 1569, 1194
2016, 1189, 1198,  444,  442
2017, 1564, 1199,  112, 1527
2018, 1564, 1514, 1477,  994
2019, 1376,  529,  498,  499
2020, 1568, 1186,   97, 1197
2021, 1194, 1189, 1195, 1197
2022, 1413,  972,  971,  974
2023,  122,  123,  106, 1537
2024, 1296, 1378, 1377,  106
2025, 1169, 1171,  582, 1577
2026,  467, 1212,  466, 1379
2027, 1029, 1413, 1480,  972
2028,  109, 1470,  125,  126
2029, 1139, 1143,  972, 1142
2030, 1139,  972, 1031, 1142
2031,  971, 1029,  973,  972
2032, 1143,  972, 1142,  161
2033, 1472, 1527, 1474, 1475
2034, 1475, 1527,  994, 1514
2035,  463,   68,   67,  423
2036,  911, 1072,  912, 1073
2037, 1073, 1057,  882, 1418
2038, 1073, 1057,  913,  882
2039, 1574,  128,  127,  111
2040, 1138,  176,  159,  160
2041, 1622,  127,  128,  144
2042, 1073,  913, 1074,  912
2043, 1135, 1137,  175,  190
2044,  364, 1333,  348, 1330
2045,  464, 1211, 1214,  463
2046, 1458, 1172, 1137,  174
2047, 1623,  296,  297,  313
2048,  983,  984,  982, 1470
2049, 1029,  579,  610,  609
2050, 1124, 1138,  175, 1137
2051, 1460, 1179, 1135, 1137
2052, 1036, 1042,  233,  232
2053, 1482,  123, 1537,  107
2054, 1094, 1035, 1039,  265
2055, 1296,  121,  105,  122
2056, 1168,  160,  143,  144
2057, 1379, 1213,  497, 1603
2058, 1103,  247, 1112, 1206
2059, 1518,  156,  140,  157
2060, 1093, 1035, 1095, 1039
2061, 1296, 1377, 1534,  122
2062, 1105, 1112,  263, 1273
2063,  974,  144,  161,  160
2064, 1105,  264, 1273,  263
2065, 1413, 1569,  548,  547
2066, 1518, 1164, 1476,  140
2067, 1509, 1518,  555, 1516
2068, 1518, 1476,  141,  140
2069, 1521, 1296, 1534,  121
2070, 1337, 1598, 1396,  163
2071, 1185, 1456,  114,  130
2072,  982,  990,  109,  984
2073, 1473, 1476,  524, 1575
2074, 1476, 1575, 1517,  524
2075, 1325,  100,  117,  116
2076, 1338, 1323, 1220,  132
2077, 1604, 1608, 1605, 1607
2078, 1413,  128,  129,  145
2079,  478,   83,   82,  432
2080, 1339,  116, 1325,  117
2081, 1433,  713,  744,  743
2082, 1325,  970,  101,  100
2083, 1461,  969,  451,  431
2084, 1323,  133,  149,  132
2085, 1322, 1442,  118,  117
2086,  434,  101,  100,   10
2087, 1325,  970,  117,  101
2088,  243, 1292,  959,  242
2089, 1058,  252, 1434,  251
2090, 1325, 1324, 1248, 1246
2091, 1200,  534,  503,  504
2092, 1203,  119,  120,  136
2093,  565, 1570,  566, 1542
2094, 1340, 1041, 1325, 1247
2095, 1071,  170,  186,  169
2096, 1550,  151,  167,  150
2097, 1203,  119,  136,  135
2098, 1246, 1247,  434,  970
2099, 1060, 1433,  712,  713
2100,  959,  242,  226,  243
2101, 1347, 1068, 1534, 1067
2102, 1534,  137,  121,  138
2103, 1482,  123, 1536, 1537
2104,  532, 1278, 1067, 1380
2105, 1067, 1349,  563,  564
2106, 1534, 1380,  989, 1067
2107, 1202, 1349, 1067,  564
2108,  977,  503, 1202,  502
2109, 1347,  977, 1203, 1202
2110,  564, 1570, 1202, 1349
2111, 1607,  156,  139,  140
2112, 1021, 1349,  595, 1023
2113, 1021, 1023, 1122, 1349
2114, 1551,  597, 1570,  566
2115,  418,  468,  467,   72
2116, 1518, 1624, 1164, 1607
2117, 1570, 1122, 1123, 1349
2118, 1460,  205,  189,  206
2119, 1570,  565,  566,  596
2120, 1213, 1379,  497,  466
2121, 1462,  118, 1055,  134
2122, 1476,  140,  124,  141
2123, 1296, 1297, 1520,  468
2124, 1058,  252,  235,  236
2125, 1471,  158,  141,  142
2126, 1030, 1461,  968,  430
2127, 1173,  976, 1176, 1175
2128, 1482,  107,  124,  123
2129,  505,  976, 1176,  474
2130, 1315,  172, 1618, 1511
2131, 1348, 1030,  506,  505
2132, 1195,  440, 1532,  441
2133,  459,  441,  439, 1184
2134, 1475,  521,  552,  551
2135, 1194,  485, 1195,  486
2136, 1195,  484,  485, 1188
2137, 1532,   88,  459,  440
2138,   62,  396,  929,  928
2139,  115, 1402, 1538,  114
2140, 1138,  176,  175,  159
2141, 1532,  484,   88,  440
2142,  545, 1479,  515,  514
2143, 1250, 1219,  512, 1402
2144,  483,  459,  437, 1187
2145,  987,  985, 1327, 1275
2146, 1188, 1195, 1186, 1197
2147, 1395,  179,  178,  162
2148,   86,  482,  437,  438
2149, 1185,  516, 1188, 1569
2150, 1183,  484, 1532, 1188
2151,  435, 1246,   84,  480
2152, 1195, 1186, 1197, 1196
2153, 1247,   10,  434,  100
2154, 1478,  545, 1479,  515
2155, 1402,  131, 1479, 1185
2156, 1144,  203, 1120,  202
2157, 1037, 1151, 1038, 1039
2158, 1250,  543, 1221,  542
2159, 1338, 1220,  131,  132
2160, 1303, 1307, 1304, 1305
2161, 1143,  161,  177,  160
2162, 1467,  683,  652, 1118
2163, 1144, 1160, 1120,  203
2164, 1464, 1552,  567,  568
2165, 1463,  135,  151,  134
2166, 1065, 1118, 1119,  683
2167, 1096, 1469,  816, 1599
2168, 1469, 1423,  787,  965
2169, 1271, 1270, 1469, 1599
2170, 1067,  563, 1349, 1069
2171,  471,   75,  470,  456
2172, 1542, 1551,  566,  567
2173,  475,  474,  457,   79
2174,  966,  965, 1469, 1270
2175, 1271, 1469, 1625, 1599
2176,  966, 1423, 1422, 1469
2177,  470,  469,  420,   74
2178, 1200,  505,  535,  504
2179, 1423, 1469, 1529, 1422
2180, 1452, 1416, 1433, 1415
2181, 1551, 1570, 1122, 1123
2182, 1084, 1502, 1614,  868
2183, 1489, 1192, 1417, 1416
2184, 1624, 1575, 1164, 1603
2185,  980,  470,  471,  501
2186, 1512,  174,  157,  158
2187, 1315, 1618,  172,  171
2188, 1618,  156, 1511,  172
2189, 1595,  593,  623,  592
2190, 1037,  234, 1063,  235
2191, 1471,  158,  157,  141
2192, 1604, 1606, 1535, 1381
2193, 1043, 1150, 1120,  218
2194, 1187,  482,  437,  483
2195, 1150, 1120, 1116,  988
2196, 1217,  762,  732, 1610
2197, 1058,  251, 1037,  235
2198, 1517,  556,  555,  525
2199, 1549,  259,  260,  276
2200, 1118, 1120, 1144, 1467
2201, 1118, 1119,  683,  684
2202,  576, 1222,  606, 1024
2203, 1312, 1337,  164, 1598
2204, 1168,  160,  159,  143
2205,  398,  395,  396, 1327
2206, 1624, 1517,  525,  556
2207, 1624, 1510, 1517,  556
2208, 1577,  551,  581,  550
2209, 1624, 1608,  557,  558
2210, 1518, 1476, 1624, 1517
2211,  482,  438,   86,  481
2212, 1624, 1608, 1618, 1510
2213, 1156, 1165, 1161, 1317
2214, 1324, 1340, 1250, 1041
2215, 1172,  174,  158,  159
2216, 1514,  520,  550,  519
2217, 1513, 1477,  548, 1569
2218, 1322, 1339, 1326, 1325
2219, 1325, 1248, 1326, 1442
2220, 1186,   98,  114,   97
2221, 1185, 1184, 1538,  114
2222, 1326, 1248,  967, 1442
2223, 1324, 1323, 1335, 1221
2224, 1136,  176,  192,  175
2225, 1025,  163, 1395,  162
2226, 1072, 1559, 1345, 1251
2227,  382,  410, 1251, 1072
2228, 1075,   26,  357,  382
2229,  482,  437,  438, 1187
2230, 1075,  379,   26,  382
2231, 1342,  914,  915,  945
2232, 1559, 1072, 1345, 1073
2233, 1219,  544,  543,  513
2234, 1219,  545,  575,  544
2235, 1568,  114, 1456,  113
2236, 1258, 1343, 1342, 1495
2237, 1348,  538,  537,  507
2238, 1393,  179,  195,  178
2239, 1343, 1075,  379,  356
2240, 1186, 1197, 1196,   97
2241,  145,  146,  129, 1457
2242,  379, 1075, 1341,  381
2243, 1072,  381, 1075,  380
2244, 1234,  342, 1235, 1252
2245, 1252, 1559, 1571, 1234
2246, 1251, 1559, 1571, 1252
2247, 1324, 1320, 1326,  541
2248, 1031,  609,  640,  639
2249, 1194,  517,  486,  487
2250, 1078, 1573, 1252, 1081
2251, 1319, 1306, 1307,  570
2252, 1573,  877, 1237,  878
2253, 1336,  573,  604,  603
2254, 1368,  877, 1573,  908
2255, 1235, 1573, 1252, 1078
2256, 1368, 1235, 1237, 1554
2257, 1278,  562,  561,  531
2258, 1058, 1059, 1432, 1433
2259, 1043, 1063,  218, 1120
2260, 1597,  183,  167,  184
2261, 1450,  199,  198,  182
2262, 1134, 1259,  289, 1020
2263, 1259,  289, 1020,  290
2264, 1020, 1134,  273,  289
2265, 1116, 1146,  654,  623
2266, 1547, 1013, 1014,  791
2267, 1071,  185,  169,  186
2268, 1070,  154, 1382,  170
2269, 1020, 1014, 1018, 1313
2270, 1382,  155,  171,  154
2271, 1015, 1020,  290, 1313
2272, 1046,  628,  659,  658
2273, 1472, 1574, 1622,  127
2274, 1622, 1515, 1574, 1577
2275, 1608,  588,  557,  558
2276, 1147,  202, 1150,  201
2277, 1458,  173,  174,  190
2278, 1622,  128, 1574, 1515
2279, 1438,  642,  673,  672
2280, 1604, 1621, 1316,  589
2281, 1473, 1475,  997,  522
2282, 1511,  156,  157,  173
2283, 1618,  171,  155,  172
2284, 1472, 1475, 1574, 1527
2285, 1472, 1527, 1574,  111
2286, 1460,  206,  189,  190
2287, 1472, 1622, 1519,  127
2288, 1461,  970,  101, 1442
2289,  969,  970, 1461, 1442
2290,   12,  431,  102,  429
2291, 1511,  173,  172,  156
2292,  431,  102,  429, 1461
2293,  973,  580,  581,  611
2294, 1029,  579,  609,  578
2295, 1200, 1201, 1203, 1055
2296, 1173, 1461,  430,  429
2297, 1461, 1442,  101,  102
2298, 1459,  617,  616,  586
2299, 1169,  582,  612,  581
2300, 1509,  585,  615,  554
2301, 1137,  175,  190,  174
2302,  429, 1461,  102, 1175
2303, 1176, 1175,  103,  102
2304,  429, 1461, 1175, 1173
2305, 1138,  160, 1143,  176
2306, 1461,  118, 1442,  102
2307, 1142,  161,  162,  178
2308, 1455,  192,  208,  191
2309, 1224,  209, 1437,  193
2310, 1567,  177,  178,  194
2311,  118, 1461, 1466, 1176
2312, 1586, 1106, 1034,  688
2313, 1394,  636,  605,  606
2314, 1033, 1097, 1034, 1035
2315, 1319,  569,  568,  538
2316, 1106, 1110,  721, 1205
2317, 1001,  698,  668,  699
2318, 1449,  182,  166,  183
2319, 1034, 1586, 1154, 1042
2320, 1492, 1106, 1105, 1274
2321, 1492, 1106, 1274,  751
2322, 1288, 1301, 1291, 1298
2323, 1597,  167,  168,  184
2324, 1138, 1168,  160,  159
2325, 1309,  572,  603,  602
2326, 1138, 1143, 1167, 1141
2327, 1436,  674,  705,  704
2328, 1449, 1446, 1444, 1445
2329, 1436, 1439, 1141, 1437
2330, 1124, 1138, 1167, 1128
2331, 1124, 1136, 1138, 1128
2332, 1172, 1137,  174,  159
2333, 1128,  642, 1167,  643
2334, 1023,  626,  625,  595
2335, 1124, 1179, 1126, 1137
2336, 1124, 1128, 1167,  644
2337, 1128,  643, 1167,  644
2338, 1076, 1082, 1079,  387
2339, 1424,  788,  787,  757
2340, 1428, 1077, 1078, 1079
2341, 1077, 1079,  962,  411
2342, 1050,  168,  169,  185
2343,  965,  787,  786,  756
2344, 1076,  387, 1079,  411
2345,   52,  938,  385,  386
2346, 1611,  257,  258,  274
2347, 1081, 1253, 1573, 1252
2348,  998, 1071, 1050,  169
2349, 1446, 1307,  600,  599
2350, 1526, 1281,  830,  829
2351, 1592, 1134, 1609, 1591
2352, 1615,  828, 1526, 1260
2353, 1144,  186,  203,  202
2354, 1185, 1568, 1188, 1186
2355, 1456,  114,  130,  113
2356, 1582, 1591, 1592, 1012
2357, 1005, 1285, 1284, 1283
2358, 1318,  189,  188,  172
2359,  981, 1575,  984,  493
2360, 1575, 1517,  524,  525
2361, 1510,  556,  586,  555
2362, 1315,  187,  171,  188
2363, 1476, 1575,  984, 1164
2364, 1470,  125, 1476,  984
2365, 1163,  188,  189,  205
2366, 1391,  206,  222,  205
2367, 1476, 1624, 1575, 1164
2368, 1561, 1386,  923,  924
2369, 1454, 1563,  335, 1560
2370, 1413, 1478, 1569,  547
2371, 1458, 1137,  190,  174
2372, 1454, 1562,  923, 1385
2373, 1141,  177,  193,  176
2374, 1479, 1457, 1456,  130
2375, 1093, 1035, 1094, 1102
2376,  226, 1217, 1215, 1216
2377, 1432, 1155,  745, 1151
2378, 1478, 1026,  545,  546
2379, 1440, 1034, 1154, 1042
2380, 1032, 1095, 1039, 1038
2381, 1095, 1038,  716,  747
2382, 1157, 1302, 1158, 1441
2383, 1225,  702, 1565,  701
2384, 1157,  220, 1064, 1160
2385, 1617,  629,  628,  598
2386, 1509,  615,  584,  554
2387, 1062, 1060, 1407, 1441
2388, 1452, 1416,  743, 1433
2389, 1135,  191,  206,  190
2390, 1062, 1409,  253,  237
2391,  987,  399,   63,  413
2392,  681, 1441,  711, 1060
2393, 1284, 1131, 1524, 1282
2394, 1438,  641,  642,  672
2395, 1526, 1585,  860,  861
2396, 1301,  698, 1291,  697
2397, 1224,  193,  194,  210
2398, 1005, 1284, 1281,  830
2399, 1031,  609,  639,  608
2400, 1290,  699, 1218,  700
2401, 1310,  180,  197,  196
2402, 1506, 1503, 1504, 1505
2403, 1005, 1282,  830,  799
2404, 1615, 1591, 1281, 1609
2405, 1319, 1465,  570,  569
2406, 1025, 1337, 1395,  163
2407, 1447,  631,  632,  662
2408, 1048, 1050,  185,  184
2409, 1044,  184, 1048,  200
2410, 1446, 1447,  601, 1307
2411, 1387,  196,  197,  213
2412, 1022,  625, 1023,  626
2413,  201, 1045,  217, 1048
2414, 1559,  341,  358,  357
2415, 1071,  185, 1048, 1050
2416, 1311,  634,  604,  635
2417, 1071, 1382, 1595, 1594
2418, 1443, 1216, 1613,  225
2419, 1047,  200,  199,  183
2420, 1044, 1048, 1050, 1022
2421, 1386,  955,  954,  924
2422, 1045,  200,  201,  217
2423,  918,  949,  919, 1354
2424, 1445, 1447,  662,  631
2425,   40,  950,  408,  369
2426, 1048,  185, 1147,  201
2427, 1275,  897,  928,  927
2428, 1445, 1446, 1617, 1449
2429, 1046, 1208,  659,  628
2430,  950,  408,  369, 1500
2431, 1344,  370,  371,  408
2432, 1108, 1206, 1107, 1114
2433, 1344, 1500, 1354, 1358
2434, 1048,  201,  200,  184
2435, 1206, 1108, 1209, 1114
2436,  960,  227,  244,  243
2437,  989, 1520,  501, 1380
2438, 1153,  267,  283,  266
2439, 1492, 1105, 1273, 1274
2440, 1147,  201,  185,  202
2441, 1380, 1520, 1534,  989
2442, 1296,  499, 1520, 1380
2443, 1351,  678,  647,  648
2444, 1297,  419, 1522,  420
2445, 1297, 1521, 1296, 1520
2446, 1144,  186,  187,  203
2447, 1604,  589,  558,  559
2448, 1297, 1493, 1520,  469
2449, 1318,  189,  172,  173
2450,  211,  227, 1298, 1227
2451,  402,  401,  956,    3
2452,  985, 1483, 1279,  349
2453, 1314,  617,  586,  587
2454, 1447,  663,  633,  664
2455, 1158,  204,  205,  221
2456, 1460,  190, 1135,  206
2457, 1361,  207,  224,  223
2458, 1290,  731, 1292,  730
2459, 1622, 1519,  127,  143
2460, 1501, 1134, 1132,  796
2461, 1292, 1018, 1610, 1453
2462, 1610, 1611, 1134, 1501
2463, 1611, 1501, 1362, 1582
2464, 1281, 1285, 1012, 1591
2465,  365,   34,  985,  364
2466, 1611, 1501, 1613, 1362
2467, 1352, 1179, 1126,  646
2468, 1459, 1171, 1509,  615
2469, 1460, 1179, 1137, 1126
2470, 1459, 1171, 1172, 1509
2471, 1290,  700,  731,  730
2472, 1125,  159, 1172, 1168
2473,  207, 1181, 1455,  191
2474, 1622, 1172, 1171, 1519
2475, 1181,  207,  222,  206
2476, 1138, 1167,  974, 1168
2477, 1207,  691,  660,  661
2478, 1225,  670, 1003,  671
2479, 1128,  673,  642,  643
2480,  999, 1223, 1000, 1002
2481, 1223, 1003, 1395, 1142
2482,  999, 1215, 1218, 1225
2483, 1139, 1566,  641, 1438
2484, 1139,  640, 1003, 1031
2485, 1579, 1580,  665,  696
2486, 1610,  733,  764,  763
2487, 1133, 1134, 1132, 1610
2488, 1416, 1086,  775,  776
2489, 1003,  670,  639,  640
2490,  964,  262,  278,  261
2491, 1555, 1096, 1367, 1557
2492, 1425, 1422,  293,  294
2493, 1002,  211,  210,  194
2494, 1289,  959, 1290, 1001
2495, 1292,  761, 1448,  730
2496, 1299,  212,  195,  196
2497,  602, 1308,  601,  632
2498, 1613,  258,  241,  242
2499, 1294,  198,  214,  197
2500, 1207, 1208, 1209, 1450
2501,  966,  278, 1425,  964
2502, 1111,  245,  246,  262
2503, 1091, 1372,  838, 1266
2504, 1625,  294,  311,  310
2505, 1432, 1155, 1151, 1153
2506, 1152, 1095, 1094, 1098
2507, 1254, 1111, 1626,  963
2508, 1152, 1094, 1095, 1039
2509,  965,  785,  755,  786
2510, 1416,  776, 1265, 1086
2511, 1104, 1204,  216,  215
2512,  965,  756,  786,  755
2513, 1265, 1416, 1267, 1155
2514, 1045,  217,  216,  200
2515, 1047,  199, 1209, 1450
2516, 1589, 1267, 1540,  298
2517, 1292,  959, 1289, 1287
2518, 1290, 1218,  699, 1001
2519, 1290,  731,  700, 1217
2520, 1144, 1147,  186,  202
2521, 1042,  233,  216,  217
2522, 1290, 1292,  731, 1217
2523, 1036,  232,  249,  248
2524, 1116,  623,  654,  653
2525, 1290, 1218, 1217,  700
2526, 1590, 1099, 1100, 1098
2527, 1102, 1101, 1099, 1098
2528, 1390,  221,  222,  238
2529, 1626,  755,  725,  756
2530, 1099, 1590, 1589, 1098
2531, 1094, 1099, 1098, 1102
2532, 1145,  653,  652,  622
2533, 1032,  250,  249,  233
2534, 1037,  251,  250,  234
2535,  237, 1409,  253, 1507
2536, 1099, 1273, 1101, 1102
2537, 1510,  587,  586,  556
2538, 1144, 1161, 1160,  203
2539, 1525, 1285, 1281, 1591
2540, 1065, 1157, 1064, 1160
2541, 1524,  862, 1583,  861
2542, 1302,  237,  220,  221
2543, 1524, 1583,  863, 1182
2544, 1524, 1600, 1526,  861
2545, 1158,  220,  204,  221
2546, 1131, 1523, 1283, 1049
2547, 1352,  677,  646,  616
2548, 1361,  224,  207,  208
2549, 1523, 1528, 1049, 1130
2550, 1129, 1524, 1131, 1182
2551, 1316, 1608, 1618, 1605
2552, 1439,  208, 1443,  224
2553, 1256,  245,  228,  229
2554, 1621, 1316,  620, 1317
2555, 1344, 1359, 1500, 1358
2556, 1314, 1315, 1316, 1618
2557, 1525, 1615,  288, 1591
2558, 1196,    6,   96,  442
2559, 1356,  339, 1495, 1576
2560, 1532,  459,  441,  440
2561, 1581,  726,  695,  696
2562, 1496,  355,  354, 1576
2563, 1189, 1195, 1196,  450
2564, 1189, 1198, 1197, 1194
2565, 1289,  730, 1292, 1287
2566, 1056, 1435, 1342,  915
2567, 1197, 1196,   96,  442
2568, 1195,  484, 1532,  440
2569,  210,  227,  959,  226
2570, 1289, 1287, 1291,  729
2571, 1196,    7,    6,  442
2572, 1196,  442,  441,    7
2573,  609, 1029, 1031, 1139
2574, 1276,  926,  402, 1508
2575, 1295,  725,  694,  695
2576, 1291,  698,  728,  697
2577, 1143, 1140,  972,  974
2578, 1626, 1588,  756,  725
2579, 1579,  666,  696,  665
2580, 1138,  974,  160, 1168
2581, 1113,  213,  230,  229
2582, 1294,  197,  214,  213
2583, 1454, 1386, 1385,  923
2584, 1205,  720,  689,  690
2585, 1435,  946,  915,  916
2586, 1167,  973,  612,  611
2587, 1043,  217, 1042, 1150
2588, 1087, 1091, 1372, 1092
2589, 1042,  216,  233,  232
2590, 1355, 1496, 1356, 1435
2591, 1454, 1562, 1385, 1505
2592, 1489, 1553,  804, 1085
2593, 1489,  774, 1086,  805
2594, 1063,  218,  235,  234
2595, 1344, 1356,  354, 1358
2596, 1044, 1046, 1045, 1022
2597, 1219, 1027, 1026, 1479
2598, 1265,  807, 1086,  776
2599, 1154,  687,  686,  656
2600, 1416, 1267, 1155, 1153
2601, 1382, 1535,  154, 1068
2602, 1083, 1091,  807, 1086
2603, 1083, 1091,  838,  807
2604, 1088, 1415, 1417,  284
2605, 1191, 1192, 1489,  773
2606,  806,  805, 1083, 1086
2607, 1039,  249,  250,  266
2608, 1267, 1415, 1153, 1416
2609, 1044, 1122, 1050,  184
2610, 1390,  238,  237,  221
2611, 1122, 1050,  184,  168
2612, 1551, 1122, 1550, 1123
2613, 1507,  254,  237,  238
2614, 1064,  219,  220,  236
2615, 1561,  923,  892,  893
2616, 1044, 1597, 1046, 1021
2617, 1021, 1023,  595,  626
2618, 1027, 1337,  163,  147
2619, 1062,  252,  236,  253
2620, 1062,  236,  237,  253
2621, 1007,  255,  271,  270
2622, 1046, 1586,  659, 1208
2623, 1122, 1050,  998, 1023
2624, 1437, 1439,  209, 1443
2625, 1122,  998,  168,  152
2626, 1225,  701, 1218,  670
2627, 1399,  239,  255,  254
2628, 1109,  724,  723,  693
2629,  605, 1222, 1336, 1394
2630, 1121,  998, 1122,  152
2631, 1397,  239,  254,  238
2632, 1597,  167, 1122,  168
2633, 1495, 1576,  339,  355
2634, 1435, 1342,  915,  946
2635, 1496,  373,  372,  377
2636, 1122, 1349, 1023,  998
2637, 1615, 1281,  828, 1609
2638,  848, 1529,  817,  847
2639, 1334, 1330,  347,  348
2640, 1112,  246,  263,  262
2641, 1005, 1282,  799,  800
2642, 1285, 1591,  272, 1582
2643, 1014,  822,  792,  823
2644, 1448,  243, 1255, 1170
2645, 1592, 1134, 1582, 1501
2646, 1615, 1259, 1609, 1260
2647, 1609, 1241, 1132,  826
2648, 1543,  790, 1545,  789
2649, 1609,  827, 1260,  826
2650, 1290, 1217, 1218,  959
2651, 1615, 1609,  828, 1260
2652, 1254, 1256, 1544, 1588
2653, 1287, 1291, 1533, 1298
2654, 1592,  797, 1609,  796
2655, 1363, 1592, 1582, 1501
2656, 1247,  435,  458,  436
2657,  959,  243,  960, 1287
2658, 1363, 1592,  765,  766
2659, 1610, 1501,  733, 1565
2660,  728, 1287, 1546,  729
2661, 1588,  727,  757,  726
2662, 1610, 1613, 1565, 1217
2663, 1340, 1041, 1040, 1402
2664, 1113,  229,  246,  245
2665, 1610, 1292, 1453, 1217
2666, 1413, 1478,  547,  578
2667, 1018,  763,  793,  762
2668, 1103,  248,  247,  231
2669,  784,  754, 1270,  785
2670,  626, 1022, 1411,  657
2671, 1444, 1294, 1293, 1447
2672, 1610, 1501,  764,  733
2673, 1610, 1501,  795,  764
2674,  794,  763,  793, 1018
2675, 1042, 1451, 1150, 1154
2676, 1094, 1066, 1153,  266
2677, 1065, 1120, 1118, 1467
2678, 1103,  248,  231,  232
2679, 1035,  265,  264,  248
2680, 1032, 1038, 1033, 1095
2681, 1037,  235,  251,  234
2682, 1440,  687,  718,  717
2683,  988, 1063, 1120, 1119
2684, 1318, 1511,  173,  172
2685, 1165,  188, 1318, 1163
2686, 1370,  811,  842,  841
2687, 1058,  251,  235,  252
2688, 1478, 1029,  578, 1413
2689, 1593, 1147, 1144, 1145
2690, 1010,  256,  255,  239
2691, 1421,  819, 1424, 1545
2692, 1094,  265,  266,  282
2693, 1391, 1460,  205, 1163
2694, 1392, 1459,  617,  616
2695, 1318,  189, 1163,  188
2696, 1441,  710,  679,  680
2697, 1458,  173, 1318, 1511
2698, 1533,  728,  727,  697
2699, 1433,  745,  744,  714
2700, 1066,  267,  250,  251
2701,   33, 1327,  364, 1331
2702, 1426, 1427, 1549, 1545
2703,  292,  293,  276, 1426
2704, 1406,  711,  742,  741
2705, 1405,  270,  286,  269
2706,  394, 1328, 1230,  393
2707, 1328, 1230,  393, 1229
2708, 1331,  397,  403,  395
2709, 1010,  240,  256,  239
2710, 1012,  798, 1592,  767
2711, 1409,  269,  268,  252
2712, 1399,  255,  270,  254
2713, 1328,  397, 1331, 1327
2714, 1331,   32,   33,  395
2715, 1331,  363, 1230, 1332
2716, 1331,  394,   32,  395
2717, 1474,  995,  111,   95
2718, 1476,  984,  125,  124
2719, 1473,  997, 1474,  983
2720, 1421, 1226, 1264, 1426
2721, 1438, 1141, 1128, 1167
2722, 1517, 1476,  524, 1516
2723, 1218, 1217,  700,  701
2724, 1473, 1516,  553,  523
2725, 1591,  272,  273,  289
2726, 1005, 1006, 1283, 1282
2727, 1094,  282,  281,  265
2728, 1486, 1130,  318,  317
2729, 1473, 1516,  523,  524
2730, 1285,  272,  288,  271
2731, 1544,  789,  788,  758
2732, 1488,  317,  316,  300
2733, 1084, 1601,  866, 1484
2734, 1333, 1539,  349,  348
2735,  401,  402, 1508,  986
2736, 1084,  867, 1614,  866
2737, 1539, 1484, 1483, 1486
2738, 1525, 1129, 1131,  303
2739, 1530, 1500,  950, 1506
2740, 1614, 1484,  866,  897
2741, 1018,  793,  792,  762
2742, 1533,  728,  758,  727
2743,  396,  398, 1327,  987
2744, 1105,  247,  248,  264
2745,  965,  755,  785, 1270
2746, 1625,  311,  294,  295
2747, 1484, 1601, 1616, 1539
2748,  274, 1013,  275, 1019
2749, 1271, 1625,  294,  295
2750, 1090, 1084, 1539, 1602
2751, 1614, 1334, 1539, 1484
2752, 1084, 1484, 1539, 1601
2753, 1367,  846,  845,  815
2754, 1090, 1602,  332,  316
2755, 1035,  249,  265,  248
2756, 1241,  856,  825,  826
2757, 1448, 1453, 1170, 1019
2758, 1099,  297,  280,  281
2759, 1066,  267,  266,  250
2760, 1341, 1057, 1258, 1342
2761, 1098,  779,  778,  748
2762, 1418, 1419, 1264, 1263
2763, 1094, 1039,  266,  265
2764, 1052, 1419, 1257, 1420
2765, 1434,  267,  251,  268
2766, 1565,  702,  732,  701
2767, 1419,  308, 1226,  309
2768, 1083,  837,  806,  807
2769, 1257, 1498,  340, 1495
2770, 1408, 1399, 1007,  270
2771, 1419, 1239, 1238,  325
2772, 1258, 1341, 1074, 1057
2773, 1593, 1621, 1594, 1145
2774, 1526, 1585,  859,  860
2775, 1049,  302,  285,  286
2776,  928, 1327,  898, 1275
2777,  589, 1604, 1608, 1316
2778, 1594,  561, 1069,  592
2779, 1507, 1174, 1401, 1407
2780,  766, 1360, 1364, 1363
2781, 1148,  346, 1373,  330
2782, 1004,  769,  800,  799
2783, 1008, 1366,  706,  737
2784, 1286,  272,  271,  255
2785, 1382,  561, 1594, 1381
2786,  590,  591, 1604, 1621
2787, 1459,  646, 1126,  615
2788,  677, 1352, 1179, 1353
2789, 1155, 1589, 1265,  778
2790, 1129,  318,  303,  319
2791, 1596,  337,  321,  338
2792, 1193,  269,  285,  268
2793, 1155, 1589,  778, 1098
2794,  228,  211,  227, 1298
2795, 1100, 1098,  780, 1590
2796, 1133, 1611, 1453, 1019
2797, 1590, 1370,  811, 1623
2798, 1590, 1266, 1370, 1540
2799, 1134, 1591, 1582,  273
2800, 1287, 1291,  729,  728
2801, 1590, 1098,  780,  779
2802, 1016,  292,  308,  291
2803, 1590, 1098,  779,  778
2804, 1109,  693, 1115,  724
2805, 1301, 1001, 1291,  698
2806, 1111, 1254, 1626, 1115
2807, 1107, 1111, 1112, 1587
2808, 1115, 1107, 1109, 1587
2809, 1262, 1585,  890,  859
2810, 1114, 1294, 1295, 1293
2811, 1490, 1334, 1332, 1502
2812, 1202,  503,  534,  533
2813, 1525,  288,  304,  287
2814, 1255, 1427, 1549,  260
2815,  753,  754, 1270,  784
2816, 1115, 1626,  725, 1588
2817, 1295, 1581,  726,  695
2818, 1403,  439, 1249,  436
2819, 1132, 1259, 1020, 1313
2820, 1376, 1535, 1536, 1381
2821, 1297,  469,   73,  420
2822, 1380, 1278,  530,  531
2823, 1521,  105, 1296,  121
2824, 1272,  263,  279,  262
2825, 1260,  857,  827,  858
2826, 1268, 1572, 1269, 1557
2827,  963, 1626,  965, 1111
2828, 1421, 1226, 1426,  293
2829, 1543, 1546, 1255, 1548
2830, 1490,  870, 1372, 1374
2831, 1272, 1112,  263,  262
2832,  966,  964, 1272,  278
2833, 1587,  754,  753,  723
2834, 1272, 1111,  262,  964
2835, 1053,  821,  852,  851
2836, 1268, 1272, 1271, 1270
2837, 1104, 1042,  216, 1045
2838, 1273,  280,  263,  264
2839, 1032,  249, 1036,  233
2840, 1042, 1036, 1032, 1034
2841,  688, 1586, 1154, 1034
2842,  385,  938,   52,   53
2843,   99,  115, 1340, 1538
2844, 1102,  265,  281,  264
2845, 1620, 1516, 1519, 1509
2846, 1539, 1334, 1502,  332
2847, 1589,  298,  297,  281
2848, 1099,  281, 1589,  297
2849, 1512, 1511, 1518,  157
2850, 1267,  282,  283,  299
2851, 1512, 1471, 1519,  158
2852, 1471,  142, 1472, 1519
2853,  964, 1111,  262,  261
2854, 1192, 1489,  773,  774
2855, 1620, 1516, 1509,  584
2856, 1622, 1172, 1168, 1171
2857, 1622, 1168, 1172,  143
2858, 1404,  741,  772,  771
2859, 1415,  283,  267,  284
2860,  680,  681, 1441,  711
2861, 1091, 1149, 1266, 1265
2862, 1509, 1511, 1518, 1512
2863, 1324,  542, 1250, 1221
2864, 1553,  834,  804,  835
2865, 1472, 1620, 1516, 1519
2866, 1477,  517, 1569, 1194
2867, 1193,  285,  284,  268
2868, 1620, 1509, 1519, 1171
2869, 1012,  768,  798,  767
2870, 1620, 1171,  582,  583
2871, 1499,  823,  824,  854
2872, 1283,  286,  271,  287
2873, 1401,  738, 1008, 1400
2874, 1620,  584, 1171,  583
2875, 1010, 1007, 1399,  255
2876, 1027,  131,  147,  130
2877, 1568, 1186, 1197, 1188
2878, 1514, 1620,  551, 1475
2879, 1354,  918,  949,  948
2880, 1620, 1622, 1577, 1171
2881, 1473, 1475,  522,  553
2882,  709,  679,  678, 1407
2883, 1434, 1062, 1058, 1060
2884, 1615,  288,  289,  305
2885, 1549,  275,  276,  292
2886,  965, 1469,  786,  787
2887, 1157, 1162, 1061,  681
2888, 1441,  681, 1159, 1157
2889, 1181, 1180, 1353, 1400
2890, 1194,  485,  516, 1188
2891, 1156,  619, 1165, 1317
2892, 1507, 1302,  237, 1409
2893, 1529,  848,  817,  818
2894,  396,  397,  929, 1327
2895, 1599,  785,  816,  815
2896, 1331,  395,   33, 1327
2897, 1158,  221, 1302,  220
2898, 1129,  319, 1563, 1560
2899, 1129, 1600,  319,  303
2900, 1182, 1561, 1485, 1560
2901, 1583,  863, 1182,  894
2902, 1129, 1583, 1182, 1560
2903, 1561, 1562,  892,  923
2904, 1524,  863, 1583,  862
2905,  850,  849, 1264,  819
2906,  861, 1583, 1600,  892
2907, 1025, 1031, 1142, 1395
2908, 1003, 1142, 1031, 1395
2909, 1140,  642, 1438,  641
2910, 1270,  755,  785,  754
2911, 1139, 1140, 1143, 1438
2912, 1224,  210,  209,  193
2913, 1003, 1031,  640,  639
2914, 1139, 1567, 1437,  193
2915, 1387, 1300, 1299,  212
2916, 1572,  279,  280,  296
2917,  161,  972,  162,  145
2918,  948,  371,   42,  949
2919, 1333,  348,  365,  364
2920, 1435,  917,  947,  916
2921, 1133, 1453, 1610, 1018
2922, 1558,  328,  311,  312
2923, 1142, 1395,  178,  162
2924, 1003,  638, 1028, 1031
2925, 1099,  280,  297,  296
2926, 1590,  810,  779,  780
2927, 1000,  638, 1028, 1003
2928, 1029, 1031,  608,  609
2929, 1541,  330, 1373,  329
2930, 1267,  282,  299,  298
2931, 1148, 1541,  330, 1373
2932, 1619, 1540,  313, 1623
2933, 1541,  330,  313,  314
2934, 1369, 1370, 1266, 1540
2935, 1012, 1281, 1592,  798
2936, 1589, 1098, 1590,  778
2937, 1262, 1525, 1615,  304
2938, 1086,  805,  774,  775
2939, 1086,  806,  775,  776
2940, 1330,  364, 1333, 1327
2941,  789, 1546, 1544, 1543
2942, 1084,  836,  867,  866
2943,  762, 1610, 1018,  763
2944, 1283, 1007,  271,  286
2945, 1520,  468,  469,  499
2946,  803,  802, 1523,  772
2947, 1393, 1000, 1002, 1299
2948, 1083,  806,  836,  805
2949, 1218, 1001, 1215,  999
2950, 1276, 1508,  986, 1279
2951, 1131,  302,  287,  303
2952, 1000,  668, 1001,  667
2953, 1393, 1410, 1396, 1394
2954, 1546,  729,  759,  728
2955,  367,  369,  951,   39
2956, 1393, 1000, 1028, 1223
2957, 1242, 1241,  855, 1468
2958, 1615, 1609, 1259,  289
2959, 1244,  919,  888,  889
2960,  763,  732,  762, 1610
2961, 1333,  348,  349,  365
2962, 1526, 1260,  828,  859
2963, 1491,  361,  345,  362
2964, 1592, 1591, 1609, 1281
2965, 1099, 1540, 1623,  297
2966, 1277,  926,  896,  927
2967, 1507,  254,  253,  237
2968, 1130,  301,  302,  318
2969, 1282,  831,  800,  801
2970, 1275,  927,  896,  897
2971, 1555,  296, 1099, 1623
2972, 1155,  777, 1265,  776
2973, 1243, 1584,  889,  890
2974, 1418,  881,  850,  851
2975, 1152, 1151, 1155, 1153
2976, 1014,  792,  822,  791
2977, 1262,  305,  321,  304
2978, 1015,  290, 1020,  274
2979, 1035, 1101, 1102, 1093
2980, 1094, 1099, 1102,  281
2981, 1093,  749, 1101,  780
2982, 1101, 1572, 1557, 1269
2983, 1485,  896, 1484, 1483
2984, 1592, 1134, 1501,  796
2985, 1152,  747, 1155, 1151
2986, 1095, 1098,  747,  748
2987, 1561, 1485,  925,  894
2988, 1485,  896, 1277,  895
2989, 1152,  747, 1098,  778
2990, 1236,  310, 1625,  311
2991, 1116, 1147, 1150, 1117
2992, 1555,  296, 1623,  312
2993, 1411,  655, 1154, 1117
2994,  623, 1146, 1071, 1145
2995, 1226,  309,  292,  293
2996, 1048, 1147, 1117, 1150
2997, 1261, 1015, 1313, 1499
2998,  957,  390,   56,  391
2999, 1252,  358,  342,  359
3000, 1423,  817,  787,  818
3001, 1239,  309,  326,  325
3002, 1422,  309,  293,  310
3003, 1498, 1356,  339, 1495
3004,  623, 1071, 1594, 1145
3005, 1625,  310, 1422,  294
3006, 1071,  186, 1147,  185
3007,  940,   50,  383,  404
3008, 1053,  852,  821,  822
3009, 1419,  324,  308,  325
3010,   47,   46,  944,  381
3011,  950, 1354,  919,  949
3012, 1367, 1557,  815,  814
3013, 1236,  326,  310,  327
3014,   27,  382,  357,   26
3015, 1540,  298,  314,  297
3016, 1556,  843,  813,  844
3017, 1367,  845,  814,  815
3018, 1097,  750,  749,  719
3019, 1090, 1502, 1084, 1092
3020, 1345,  942,  941,  911
3021, 1530,  919,  920,  950
3022, 1364, 1613, 1362, 1443
3023, 1590,  780,  811,  810
3024,  735,  766, 1360, 1364
3025, 1592, 1134,  796, 1609
3026, 1134, 1611, 1582, 1501
3027, 1363, 1364, 1501, 1362
3028, 1359, 1358, 1506, 1500
3029, 1540,  314,  313,  297
3030, 1611, 1582, 1362,  257
3031, 1242, 1244, 1530,  919
3032, 1253,  939,  908,  909
3033, 1584,  890,  920,  889
3034, 1491, 1231,  961, 1232
3035, 1596, 1245, 1497,  322
3036, 1328,  403,   60,   59
3037, 1530, 1244, 1596, 1531
3038,  321, 1245, 1531, 1596
3039,  962,  935,  936,  388
3040, 1341, 1074,  913,  944
3041, 1024,  576, 1222, 1026
3042, 1025, 1028, 1395, 1337
3043, 1116,  654, 1146, 1117
3044,  832, 1523,  863,  802
3045, 1404,  771,  801,  740
3046, 1174,  740, 1404,  770
3047, 1344,  408,  371,  949
3048, 1262, 1259, 1260, 1245
3049, 1504,  952,  367,  951
3050, 1220, 1027, 1337, 1222
3051,  890, 1243, 1262,  859
3052, 1560,  350,  334,  335
3053,  131, 1479, 1027, 1220
3054, 1257,  324,  325,  341
3055, 1220, 1337, 1027,  147
3056, 1280,  986, 1384, 1508
3057,  376,  953,   37,   38
3058, 1600,  319,  303,  320
3059, 1301, 1001,  698,  667
3060, 1288, 1287, 1298, 1291
3061,  107,  106,  123, 1537
3062, 1562, 1504,  921,  922
3063, 1378, 1377,  106, 1537
3064, 1531,  320,  321,  337
3065, 1497,  323,  339,  322
3066, 1288, 1291, 1301, 1001
3067, 1344,   23,  354,  372
3068, 1344, 1355,  372,  354
3069, 1579, 1580, 1388,  665
3070, 1291,  729,  728,  698
3071, 1289,  729, 1291,  698
3072, 1243,  889, 1244,  888
3073, 1420, 1052, 1016, 1051
3074, 1579, 1301, 1291,  697
3075, 1579,  727, 1533, 1581
3076, 1287, 1291,  728, 1533
3077, 1208,  628,  629,  659
3078, 1310, 1598,  164,  180
3079, 1558,  328,  327,  311
3080, 1254,  261,  963, 1427
3081, 1559,  341,  342,  358
3082, 1310, 1312,  164, 1598
3083, 1335, 1221, 1337, 1336
3084, 1081, 1076,  938, 1080
3085, 1312, 1336, 1309, 1335
3086, 1096, 1557, 1599,  815
3087, 1257, 1258, 1495,  340
3088, 1341,  379,  381,  378
3089, 1335, 1323, 1312,  148
3090, 1378,  106, 1578, 1537
3091, 1528, 1616,  834, 1601
3092, 1478, 1479, 1457, 1456
3093, 1541,  329,  313,  330
3094, 1152, 1038, 1151, 1039
3095, 1528,  802, 1523,  803
3096,  361,   30,   31,  392
3097, 1553,  835, 1601,  834
3098, 1553, 1085, 1601,  835
3099,  929,  930, 1327,  397
3100, 1191, 1553, 1487, 1049
3101, 1221,  573,  542,  543
3102, 1486,  334,  350,  333
3103, 1340,   99, 1403,  100
3104,   32,  394,  363,  362
3105,  331, 1149,  315,  314
3106, 1416,  774,  743,  744
3107, 1191, 1192,  773,  772
3108, 1094, 1035,  265, 1102
3109, 1373,  346,  345,  329
3110, 1329, 1327,  929,  930
3111, 1033, 1034, 1097,  718
3112, 1413,  129, 1457,  145
3113, 1494, 1435,  916,  917
3114, 1220,  148, 1337,  147
3115, 1033,  718, 1097,  749
3116, 1433,  743,  712,  713
3117, 1191, 1489, 1487, 1553
3118, 1497,  338,  322,  339
3119, 1093, 1102, 1094, 1098
3120, 1058, 1432, 1434, 1433
3121, 1035, 1105,  264, 1273
3122, 1268,  295, 1555, 1625
3123, 1555,  311, 1096, 1625
3124, 1385, 1504,  922,  953
3125, 1555, 1556, 1558, 1619
3126, 1560,  335,  334,  319
3127, 1469,  816, 1599,  785
3128,  985,  398,   34,  400
3129, 1094, 1589, 1099,  281
3130, 1526,  860,  829,  830
3131, 1563,  320,  336,  319
3132, 1563,  336,  335,  319
3133, 1555, 1558,  311,  312
3134, 1228,  392, 1231, 1230
3135, 1454,  352, 1503,  351
3136, 1268, 1572, 1555,  295
3137, 1612,  842, 1556,  843
3138, 1612,  844, 1554,  875
3139, 1556,  811, 1370, 1623
3140, 1619, 1370, 1556,  842
3141, 1619, 1612,  842, 1556
3142, 1578,  418,  417,  419
3143, 1612, 1556,  844,  843
3144, 1606, 1536, 1535, 1381
3145, 1606, 1164, 1607, 1536
3146, 1606, 1603, 1164, 1536
3147, 1379, 1606,  528, 1381
3148, 1624, 1606, 1164, 1607
3149,  353,  368,  352,   22
3150, 1504,  953,  376,  952
3151, 1448, 1018,  792,  761
3152, 1470, 1474, 1412,  983
3153,  946,  947,  373,   44
3154,  987,  413,  396,  398
3155, 1622, 1574, 1620, 1577
3156, 1622,  144,  974, 1168
3157, 1622,  973, 1577, 1169
3158, 1574, 1514, 1577, 1515
3159, 1171, 1622, 1577, 1169
3160,  986,  365,  985, 1279
3161, 1577, 1171,  582, 1620
3162, 1475, 1514,  520,  551
3163, 1516, 1509,  584,  554
3164, 1125, 1172,  159, 1137
3165, 1232,  344,  345,  361
3166, 1235,  342,  326,  343
3167, 1242, 1530, 1596, 1354
3168, 1242,  888,  918,  887
3169, 1530, 1244, 1584,  920
3170, 1279,  366,  365,  349
3171, 1429,  328,  344,  327
3172, 1262, 1244, 1531, 1245
3173, 1596, 1354, 1356, 1497
3174, 1596, 1244, 1242, 1245
3175, 1245, 1531, 1596, 1244
3176, 1044,  200, 1048, 1045
3177, 1578,  418,  455,  417
3178, 1044, 1047, 1597,  184
3179,  625, 1146,  655, 1411
3180, 1430, 1541, 1371, 1373
3181, 1333,  985,  364,  365
3182, 1411,  626,  656,  625
3183, 1485,  894,  864,  925
3184, 1597, 1208, 1449, 1450
3185, 1578,  418, 1212,  455
3186, 1296, 1578,  419,  418
3187, 1074,  913,  943,  912
3188, 1046, 1586,  657,  658
3189, 1508,  956,  925,  895
3190, 1485,  865,  895,  864
3191, 1277,  926, 1508,  895
3192, 1090,  332,  315,  316
3193,  656, 1411,  655, 1154
3194, 1411, 1154,  656,  657
3195, 1508,  956,  895,  926
3196, 1280,  350, 1560,  335
3197, 1410, 1000, 1393, 1299
3198, 1296, 1578,  106,  419
3199, 1002,  195, 1299,  211
3200, 1485,  895,  925,  864
3201, 1276,  926, 1277,  927
3202, 1387, 1300,  212,  213
3203, 1275,  897,  898,  928
3204, 1296, 1378,  106, 1578
3205, 1387, 1580, 1447, 1308
3206,  633,  664, 1388, 1308
3207, 1333, 1483,  985,  349
3208, 1614, 1275, 1327, 1334
3209, 1334,  348,  331,  332
3210, 1089, 1085, 1488, 1417
3211, 1242,  918,  888,  919
3212, 1454,  352,  351,  335
3213, 1561, 1386,  924,  925
3214,  367,  952,   38,   39
3215, 1388,  664,  633,  634
3216, 1387, 1388, 1580, 1308
3217, 1387,  212, 1299,  196
3218, 1454,  336,  352,  335
3219, 1384,  351,  406,  366
3220, 1108, 1206, 1209, 1204
3221, 1079, 1232,  361,  360
3222, 1044,  200, 1047,  184
3223, 1045, 1104, 1042, 1586
3224, 1108, 1110, 1205,  690
3225, 1269,  784,  753, 1270
3226, 1481,  415,  108,  107
3227, 1586, 1154,  657,  688
3228, 1106, 1034,  688,  719
3229,   17,  415,  417, 1481
3230, 1297,  419, 1296,  105
3231, 1106,  689, 1205,  720
3232, 1485, 1483, 1279, 1277
3233, 1485, 1279, 1508, 1277
3234, 1561,  925, 1485, 1508
3235, 1485, 1279, 1486, 1560
3236,   41,  950,  949,  408
3237, 1530,  951,  950,  920
3238, 1378,  467,  468,  498
3239,   45,   44,  946,  409
3240,  961,  902, 1375,  903
3241,   21,  352,  368,   22
3242,  961, 1228, 1491, 1229
3243, 1341, 1258, 1075, 1343
3244,  957, 1228, 1231,  961
3245, 1228,  961, 1491, 1231
3246, 1228, 1491, 1229, 1230
3247,  374,  947,  948,   43
3248,  838, 1083, 1092, 1091
3249, 1091, 1087, 1372, 1149
3250, 1528, 1553, 1601,  834
3251,  847, 1234, 1237,  878
3252,   24,  355,  377,   25
3253, 1416, 1489, 1086, 1417
3254, 1572, 1273,  280,  279
3255, 1430,  328,  345,  344
3256, 1268, 1599, 1555, 1557
3257, 1268, 1625, 1271,  295
3258, 1271, 1625, 1469, 1422
3259,  966, 1271,  278, 1272
3260, 1082,  387,  386,  384
3261, 1232,  344,  361,  360
3262,  784, 1269, 1557, 1268
3263, 1072,  942,  911,  912
3264, 1268, 1599,  784, 1270
3265, 1096, 1469, 1599, 1625
3266, 1599,  784, 1270,  785
3267, 1473, 1471, 1516, 1476
3268, 1332,  347,  363,  346
3269,  360,   30,  389,   29
3270, 1622, 1515,  144,  128
3271, 1172, 1519, 1509, 1171
3272, 1471, 1472, 1473, 1516
3273, 1231,  362, 1230,  392
3274, 1564,  128, 1414, 1515
3275, 1473,  983,  492,  522
3276, 1473, 1474,  997, 1475
3277, 1475,  997,  522,  521
3278,   31,  394,  362,  392
3279, 1330, 1329, 1327, 1334
3280, 1329,  930,  929,  899
3281, 1329,  869,  868, 1502
3282, 1485, 1508,  925,  895
3283,   31,  362,  394,   32
3284, 1614, 1334, 1329, 1502
3285, 1334, 1539, 1484, 1333
3286, 1329,  900,  899,  869
3287, 1483,  985,  987, 1275
3288,  987,  396,  928, 1275
3289, 1372,  869,  838,  839
3290,  987, 1483, 1277, 1279
3291, 1084,  866, 1614, 1484
3292,   34,  985,  364,  398
3293,  985,  400,   34,  365
3294,  987, 1275, 1327,  396
3295,  985,  364,  398, 1327
3296, 1244,  889, 1584,  920
3297, 1394, 1028, 1000,  637
3298,   20,  366,  406,  351
3299,   28,  359,  387,   29
3300, 1149,  314,  298,  315
3301, 1490,  900,  869,  870
3302, 1456,  129,  113,  130
3303, 1394, 1337, 1396, 1395
3304, 1562, 1563,  892, 1585
3305, 1000,  637, 1028,  638
3306, 1394, 1337, 1028, 1222
3307, 1130,  317,  301,  318
3308, 1562,  921,  890,  891
3309,    2,  366,  406,   20
3310, 1395, 1028, 1025, 1031
3311,  577, 1024, 1029, 1026
3312, 1027, 1028, 1222, 1024
3313, 1563,  335, 1560,  319
3314, 1234, 1233,  847, 1236
3315, 1235, 1429, 1078,  343
3316, 1359,   22,  370,  368
3317, 1234, 1237, 1573, 1235
3318, 1503,  352,  368,   21
3319, 1468, 1494, 1056,  885
3320, 1234, 1573, 1252, 1235
3321, 1234, 1239, 1236,  326
3322, 1500,  950,  408,  949
3323, 1359,  408,  369,  370
3324, 1355, 1435,  948,  947
3325, 1234, 1235,  342,  326
3326, 1235,  343, 1252,  342
3327, 1414,  112,  129,  128
3328,   23,  370,  353,   22
3329, 1052, 1054, 1051, 1420
3330, 1054,  885, 1468, 1056
3331,   24,  372,  354,   23
3332, 1053, 1545,  821,  820
3333, 1210, 1481,  416,  415
3334,  851,  820, 1264, 1053
3335, 1477,  550,  549,  519
3336, 1053, 1264,  851, 1052
3337, 1238,  341,  325,  342
3338,  384,   28,   27,  358
3339, 1051, 1015, 1017, 1016
3340, 1053,  822, 1017,  853
3341, 1185, 1479, 1456,  130
3342,  943, 1072,   47,  381
3343,  958,  391,  389,  392
3344, 1056,  914,  883,  884
3345, 1559, 1075,  341,  357
3346, 1054, 1052,  852,  883
3347, 1053, 1547,  821, 1545
3348, 1013, 1549, 1547, 1016
3349, 1075,  379,  382,  380
3350, 1240, 1243, 1241, 1245
3351,   29,  359,  387,  360
3352, 1243, 1245, 1262, 1260
3353, 1078,  359,  343,  360
3354, 1040, 1219, 1479, 1402
3355, 1242, 1468, 1497, 1245
3356, 1242, 1241, 1468, 1245
3357, 1261, 1241, 1259, 1245
3358, 1260, 1245, 1241, 1243
3359, 1262,  321, 1245, 1531
3360, 1555,  295,  296,  312
3361, 1369, 1371, 1541, 1373
3362, 1596,  321, 1245,  322
3363, 1010, 1397, 1361,  239
3364, 1009, 1582, 1012, 1286
3365, 1413, 1456, 1478, 1457
3366, 1330, 1327, 1333, 1334
3367, 1357, 1363, 1010, 1362
3368, 1360, 1365,  735, 1364
3369, 1333,  349, 1539, 1483
3370, 1536, 1482, 1537, 1213
3371, 1357,  223, 1361,  224
3372, 1397, 1008, 1361, 1400
3373, 1489, 1417, 1085, 1086
3374, 1360, 1357, 1010, 1008
3375,  239, 1397, 1361,  223
3376,  400,   34,  365,    2
3377, 1331,  363,   33,   32
3378, 1363, 1501, 1364,  765
3379, 1219,  513,  514,  544
3380, 1329, 1327,  898,  929
3381, 1054,  853, 1017,  854
3382, 1014, 1018,  793,  792
3383, 1013, 1019, 1549,  275
3384,  484, 1188,  515,  485
3385, 1013, 1015, 1017, 1014
3386, 1014,  793, 1313,  824
3387, 1499, 1014, 1313,  824
3388, 1262, 1600, 1563, 1585
3389, 1241, 1261, 1313, 1499
3390, 1503,   21,  351,  352
3391, 1259,  290, 1020, 1313
3392, 1313, 1132, 1133, 1020
3393, 1241, 1313, 1259, 1132
3394, 1506, 1503,  352,  368
3395, 1262,  305, 1615, 1259
3396, 1498, 1056, 1494, 1495
3397, 1259, 1245,  305,  306
3398, 1477,  994, 1514,  519
3399, 1525, 1615, 1591, 1281
3400, 1241, 1260, 1609, 1259
3401, 1259, 1241, 1132, 1609
3402,  487,  488, 1198,  518
3403, 1506, 1359, 1500,  369
3404, 1344,  372,  370,   23
3405, 1242, 1494,  886,  917
3406, 1241, 1132,  826,  825
3407, 1469,  965,  786,  785
3408, 1261, 1259, 1313,  290
3409, 1241,  825, 1313, 1132
3410, 1454, 1561, 1562, 1563
3411,  367,  376, 1506,  368
3412, 1454, 1385, 1503, 1505
3413, 1097, 1034,  719,  718
3414, 1155,  776, 1265, 1416
3415, 1213, 1481, 1537, 1378
3416, 1359,  368,  370,  369
3417, 1243,  857, 1260,  858
3418, 1503,  376, 1383,  375
3419, 1101, 1100,  780,  781
3420, 1478,  545,  515,  546
3421, 1053,  822,  853,  852
3422, 1219, 1222,  576, 1026
3423, 1110, 1206, 1108, 1103
3424, 1093, 1097, 1101,  749
3425, 1358,  337,  338,  354
3426, 1527,   96,  112,   95
3427, 1057,  913,  883,  914
3428, 1555, 1100, 1572, 1557
3429, 1538, 1184,   99,   98
3430, 1043, 1032, 1037, 1038
3431, 1111, 1587, 1115, 1626
3432, 1272, 1111,  965, 1587
3433, 1107, 1110, 1587, 1112
3434, 1040,  481,  482,  512
3435, 1379, 1213, 1537, 1378
3436, 1343,  377,  379,  378
3437,   26,  379,  356,   25
3438, 1105, 1274, 1112, 1273
3439, 1110, 1112, 1274, 1587
3440, 1495, 1346, 1435, 1496
3441, 1498, 1495, 1494, 1356
3442, 1358,  337,  354,  353
3443, 1103, 1112, 1110, 1206
3444, 1454, 1505,  352,  336
3445, 1097, 1106,  719, 1034
3446, 1094, 1267, 1155, 1589
3447, 1149, 1267,  298, 1540
3448, 1149,  298, 1267,  299
3449, 1148,  330, 1541,  314
3450, 1240, 1244, 1242,  888
3451, 1083, 1090, 1084, 1092
3452, 1088, 1417, 1416, 1086
3453, 1279,  987,  986, 1276
3454,  987,  399,  398,  400
3455, 1088,  299, 1267,  283
3456,  351,  375,   21, 1503
3457, 1596,  338, 1497, 1356
3458, 1562,  892,  922,  891
3459, 1301,  667, 1410, 1001
3460, 1223,  178, 1142, 1395
3461, 1531, 1262, 1563, 1562
3462, 1538, 1040, 1185, 1402
3463, 1619,  329,  312,  313
3464, 1394, 1000, 1410,  636
3465, 1301,  666, 1410,  667
3466, 1310, 1396,  180,  196
3467, 1258,  340,  357,  356
3468, 1394,  637, 1000,  636
3469, 1559, 1257, 1258, 1073
3470, 1346,  945,  946,  409
3471, 1394,  606, 1028,  637
3472, 1396, 1387, 1388, 1299
3473, 1388, 1410, 1301,  666
3474, 1446, 1449, 1550, 1617
3475, 1445, 1449, 1208, 1450
3476, 1418,  882,  881,  851
3477,  358,   27, 1251,  357
3478, 1293, 1445,  662,  661
3479,   45,  945, 1341,  409
3480, 1445,  629, 1208, 1617
3481, 1343,   25,  355,  356
3482, 1571,  880, 1073,  911
3483,   44,  946,  409,  373
3484, 1040, 1187,  513,  482
3485, 1307, 1449, 1550, 1446
3486, 1445, 1446,  631,  630
3487,  631, 1447,  601, 1446
3488, 1074,  381,  943,  944
3489, 1075,   26,  356,  357
3490, 1446,  630,  599,  600
3491, 1530,  919, 1244,  920
3492, 1262, 1615, 1526, 1260
3493, 1282,  830, 1524, 1284
3494, 1072,  410,  380,  382
3495, 1238,  325,  326,  342
3496, 1498,  324,  340,  323
3497, 1615, 1259,  305,  289
3498, 1082, 1079,  360, 1078
3499, 1076, 1079, 1082, 1078
3500, 1428, 1431,  962, 1232
3501,  377, 1346,  409, 1343
3502, 1076, 1077,  411, 1079
3503, 1234, 1571, 1233, 1238
3504,  938, 1080,  939, 1081
3505, 1559, 1571, 1345, 1251
3506, 1234, 1559, 1238,  342
3507,  384,  358, 1082,   28
3508, 1082,  359, 1078,  360
3509, 1080, 1076,  938,  386
3510, 1251,  383,  410,  382
3511, 1082,  358, 1252,  359
3512, 1251,  358, 1082,  384
3513, 1056,  884,  885,  915
3514,  966, 1425,  963,  964
3515, 1082,  384,   28,  387
3516, 1103, 1105,  247,  248
3517, 1103, 1112, 1105, 1274
3518, 1268, 1112, 1274, 1273
3519, 1186,  441, 1195, 1532
3520,  782,  751,  781, 1101
3521, 1529,  817,  847, 1469
3522, 1341,   46,  378,  381
3523, 1072, 1559, 1075, 1074
3524, 1555, 1599, 1096, 1557
3525,   27, 1251,  357,  382
3526, 1268, 1271, 1625, 1599
3527, 1258,  357,  340,  341
3528, 1252,  343,  359,  342
3529, 1555, 1558,  312, 1619
3530, 1096, 1558, 1555, 1367
3531, 1184, 1187, 1403,  439
3532, 1355,  373,  374,  372
3533, 1429,  327,  344,  343
3534, 1430,  328,  329,  345
3535, 1368,  908,  907,  877
3536, 1419, 1263, 1238, 1239
3537, 1096, 1236, 1625,  311
3538, 1080, 1251, 1082,  384
3539, 1096, 1599,  816,  815
3540,  484, 1532,   88,  483
3541, 1096, 1529, 1469, 1625
3542, 1096, 1625, 1236, 1529
3543,  358, 1082,   28,  359
3544, 1263,  881, 1073,  880
3545, 1265, 1266,  807,  808
3546, 1226,  309,  308,  292
3547, 1082,  359,  387,   28
3548, 1233,  848,  878,  847
3549, 1072, 1075, 1251,  382
3550, 1491,  345,  346,  362
3551, 1081,  908,  939,  938
3552,  283, 1415, 1153, 1267
3553, 1080, 1253, 1251,  383
3554, 1265, 1590,  809,  778
3555, 1235,  326,  327,  343
3556, 1253,  910,  941,  940
3557, 1251,  383,  382,  384
3558, 1155, 1151,  746,  745
3559, 1258,  341, 1075,  357
3560, 1619,  329,  328,  312
3561, 1469,  965,  785, 1270
3562, 1081,  907, 1368,  908
3563, 1600,  320, 1563,  319
3564,  336, 1505, 1531, 1563
3565, 1560, 1583, 1182, 1561
3566, 1454, 1561,  923, 1562
3567, 1101,  751,  781,  750
3568, 1590,  809,  778,  779
3569, 1561, 1583,  893,  892
3570, 1454,  335, 1563,  336
3571, 1554,  876,  875,  845
3572, 1501,  733,  734,  764
3573, 1562, 1385,  922,  923
3574, 1525, 1131, 1129, 1524
3575, 1297,  420,  421,  419
3576, 1538,   99,  115,   98
3577,  351, 1383, 1384,  375
3578, 1430, 1431, 1375,  873
3579, 1530, 1354,  919,  950
3580, 1344,   23,  353,  354
3581, 1506, 1500,  950,  369
3582,  962,  937,  411,  936
3583, 1596, 1354, 1358, 1356
3584, 1076, 1082, 1081, 1078
3585, 1355, 1356, 1354, 1435
3586, 1354, 1344, 1355,  948
3587, 1234, 1252, 1573, 1571
3588,  950, 1506,  951, 1530
3589,  392,  361,  362,   31
3590, 1055,  135, 1463,  134
3591, 1341,  944,  914,  945
3592, 1055, 1542, 1463, 1203
3593, 1225,  671, 1566,  702
3594, 1466, 1442,  968, 1461
3595, 1430,  328, 1619,  329
3596, 1462, 1321, 1322,  134
3597, 1357,  224, 1439, 1443
3598, 1055, 1201, 1203,  119
3599, 1076,  411,  385,  387
3600,  118, 1462, 1466, 1322
3601, 1082, 1252, 1078,  359
3602,  507, 1348, 1466, 1030
3603, 1373,  346,  329,  330
3604,    8,  441,   98,  439
3605, 1464,  536, 1348,  537
3606, 1081, 1253,  939,  908
3607, 1348,  536, 1542, 1200
3608, 1079,  389,  411,  387
3609,  962,  906,  937,  936
3610, 1566, 1565,  702,  703
3611,  958,  389,  391,  388
3612, 1176, 1030, 1348,  505
3613, 1466, 1030,  968,  507
3614, 1556,  842, 1370,  811
3615, 1266,  807,  808,  838
3616, 1590, 1370, 1623, 1540
3617, 1431,  874,  904,  873
3618, 1590,  809, 1370, 1266
3619, 1619, 1541, 1370, 1371
3620, 1367,  845,  844,  814
3621, 1590, 1370,  809,  810
3622,  961, 1232,  962,  904
3623, 1231,  362,  392,  361
3624, 1148,  330,  347,  346
3625,  957,  392,  390,  391
3626, 1369, 1370, 1541, 1371
3627, 1149, 1148,  331, 1502
3628, 1152, 1066, 1151, 1153
3629, 1371,  841,  871,  840
3630, 1093, 1097, 1035, 1101
3631, 1035, 1102,  264,  265
3632, 1565,  733,  702,  703
3633, 1146, 1022,  625, 1050
3634, 1328,  931,  932,  393
3635, 1146, 1050,  625, 1595
3636, 1116, 1147, 1144, 1150
3637,  988,  684, 1118,  653
3638, 1117, 1451,  686, 1154
3639, 1117, 1451,  685,  686
3640, 1094,  281, 1102,  265
3641, 1228, 1491, 1230, 1231
3642,  988, 1117, 1451,  685
3643,  413,  987,  396,  928
3644, 1266,  808,  839,  838
3645, 1599,  784,  785,  815
3646, 1472, 1519,  142,  127
3647, 1622,  974, 1515,  973
3648, 1620, 1473, 1516,  553
3649, 1620, 1577,  551,  582
3650, 1099, 1623,  296,  297
3651, 1093, 1098, 1095,  748
3652, 1066, 1153,  266,  267
3653, 1556,  843,  842,  812
3654, 1349, 1023,  594,  595
3655, 1614, 1275, 1334, 1484
3656, 1021, 1570,  596,  595
3657, 1553,  804,  834,  803
3658, 1067, 1349,  998, 1069
3659, 1487,  301,  284,  285
3660, 1084, 1539, 1614, 1502
3661, 1229,  902,  933,  932
3662, 1021,  597, 1617,  628
3663, 1230,  392,  394,  412
3664, 1202,  534,  565,  564
3665, 1091, 1149, 1372, 1266
3666, 1121, 1349, 1202, 1123
3667, 1001,  668,  698,  667
3668, 1331,  363,   32,  394
3669, 1314, 1618, 1316,  588
3670, 1328, 1332, 1490, 1329
3671, 1458, 1314, 1459,  586
3672, 1393,  178, 1395,  179
3673, 1165,  619, 1316, 1317
3674,  588, 1316, 1314,  619
3675, 1371,  873,  872,  842
3676, 1314, 1511, 1618, 1510
3677, 1331,  394,  395,  403
3678, 1511,  586, 1510, 1314
3679, 1156,  619, 1317,  650
3680, 1566,  703,  702,  672
3681, 1539, 1334,  332,  348
3682,  959,  226, 1217, 1215
3683,   33,  364,  398,   34
3684, 1378,  468,  499,  498
3685, 1566,  702,  671,  672
3686, 1157, 1158,  220, 1160
3687, 1331,  395, 1327,  397
3688, 1329,  930,  900,  931
3689,  204, 1161, 1160, 1158
3690, 1334,  347, 1502,  331
3691, 1350,  648,  647,  617
3692, 1528,  803,  833,  802
3693, 1156, 1161, 1163, 1158
3694, 1258, 1075,  356,  357
3695,  434,  101,  431,  970
3696, 1325, 1442,  970, 1248
3697,  969,  968, 1442, 1461
3698, 1279,  366,  349,  350
3699, 1246,  432,  970,  434
3700,  967,  970, 1248,  432
3701, 1247,  434,  970,  100
3702, 1614, 1275,  898, 1327
3703, 1276,   64,  926,  927
3704,  397,  395, 1327,  396
3705, 1217,  701,  732,  731
3706, 1333,  985,  365,  349
3707,  968,  969,  451, 1461
3708, 1216,  210,  226,  209
3709,  477,  967,  451,  968
3710, 1167, 1169,  613,  612
3711,   20,  351,  406,  375
3712,  986,    2,  365,  366
3713, 1185, 1456, 1568,  114
3714, 1009, 1363, 1592, 1582
3715, 1167, 1140,  642, 1438
3716, 1125, 1171, 1169, 1168
3717,  614,  613, 1126, 1171
3718, 1566, 1567, 1224, 1437
3719, 1362,  240, 1443,  241
3720, 1622, 1171, 1168, 1169
3721, 1167,  973, 1169,  612
3722, 1384,  407,  406,  375
3723, 1276,   63,   64,  927
3724, 1172, 1519,  143,  158
3725, 1513, 1477, 1569, 1414
3726, 1622,  973, 1169, 1168
3727, 1254, 1424, 1626, 1588
3728, 1618, 1605,  155,  171
3729, 1618,  155, 1605, 1607
3730, 1183,  515,  514,  484
3731, 1621, 1315, 1605, 1316
3732, 1384,  407,  401,  406
3733, 1316, 1604, 1608, 1605
3734, 1254,  261, 1427,  260
3735,   64,  926,    3,  402
3736, 1315, 1618,  171, 1605
3737,  926,  402, 1508,  956
3738,  972,  973,  974, 1140
3739, 1167,  973,  974, 1168
3740, 1263, 1418, 1073,  881
3741, 1616, 1602, 1601, 1130
3742, 1616, 1486, 1602, 1130
3743, 1219, 1479,  545,  514
3744, 1183, 1040, 1184, 1187
3745,  986,  406,  401,  400
3746, 1616, 1601, 1484,  865
3747, 1485, 1616, 1182, 1486
3748, 1584, 1504,  920,  921
3749, 1528, 1616, 1601, 1130
3750, 1616,  834, 1601,  865
3751, 1048, 1045,  200,  201
3752, 1044, 1023, 1021, 1022
3753, 1146, 1595,  625,  624
3754, 1071, 1050,  169,  185
3755, 1044, 1022, 1050, 1023
3756, 1022, 1050, 1023,  625
3757, 1276,   64,  399,  402
3758, 1595,  594, 1069, 1023
3759, 1021, 1208,  628, 1617
3760, 1021, 1570,  597,  596
3761, 1122,  998, 1050,  168
3762, 1349, 1202, 1123, 1570
3763, 1021, 1570,  595, 1349
3764, 1162,  682,  652,  683
3765, 1452, 1434, 1415, 1433
3766, 1452,  268, 1409, 1193
3767, 1118,  683,  652,  653
3768, 1415, 1434,  268,  267
3769, 1571, 1573,  909, 1253
3770, 1478, 1479, 1185,  515
3771, 1236, 1239,  310,  326
3772, 1592, 1134, 1591, 1582
3773, 1237,  847,  878,  877
3774, 1058, 1432, 1059, 1066
3775, 1369, 1266, 1370,  840
3776, 1099, 1590, 1100, 1623
3777, 1540, 1623,  297,  313
3778, 1432,  267, 1066,  251
3779, 1508,  401,  956,  402
3780,  738,  768, 1004, 1008
3781, 1369, 1149, 1540, 1266
3782, 1370, 1266,  809,  840
3783, 1011,  770, 1006,  769
3784, 1408, 1409, 1507,  253
3785,  210, 1227,  227,  211
3786, 1190,  741, 1404,  740
3787, 1404, 1006,  770,  801
3788, 1013,  792,  791, 1548
3789, 1386,  924,  954,  923
3790, 1504,  921,  952,  951
3791, 1285,  287, 1283,  271
3792, 1174,  710, 1407,  741
3793, 1507, 1390,  238,  237
3794, 1070, 1595, 1069,  998
3795, 1376,  561, 1278, 1068
3796, 1019, 1020,  274, 1013
3797, 1280, 1279,  350,  366
3798, 1069, 1595,  592,  593
3799, 1597, 1550, 1122,  167
3800, 1464, 1542,  536,  567
3801, 1551, 1550, 1617, 1552
3802, 1597, 1550,  167, 1449
3803,  974, 1140, 1167, 1143
3804, 1506,  368,  369,  367
3805, 1139, 1140, 1438,  641
3806, 1504,  922,  952,  921
3807, 1167, 1169,  973, 1168
3808, 1169,  612,  973,  581
3809, 1017,  823,  854,  853
3810, 1169,  581,  973, 1577
3811, 1515, 1622,  973, 1577
3812, 1513, 1413, 1515, 1414
3813, 1513, 1577,  581,  550
3814,  973,  579,  971,  580
3815, 1419,  309, 1239,  325
3816,  610,  973, 1029, 1140
3817, 1424,  757, 1544,  788
3818, 1543, 1544, 1424, 1427
3819, 1256, 1533, 1255, 1544
3820, 1558,  312, 1619,  328
3821, 1423,  849,  818,  819
3822,   49,   48,  942,  410
3823,  727, 1588,  758, 1533
3824, 1588,  758, 1533, 1544
3825, 1543, 1544, 1255, 1546
3826,  758,  789, 1546, 1544
3827, 1544,  757, 1588,  758
3828,  783,  784, 1269, 1557
3829,  779, 1098, 1093,  748
3830, 1100,  811,  780,  781
3831,  936,  388,   54,  411
3832, 1268, 1274, 1269, 1273
3833, 1269,  753,  784,  783
3834, 1543,  789, 1545,  788
3835, 1257, 1238,  341,  325
3836, 1369,  870,  839,  840
3837, 1273, 1269, 1572, 1101
3838, 1495,  339,  340,  356
3839, 1269,  752, 1274,  753
3840, 1492, 1269,  751, 1274
3841,  393,  394, 1328,  403
3842, 1269, 1274,  752,  751
3843, 1452,  252, 1434, 1062
3844, 1095, 1032, 1035, 1033
3845, 1043, 1042, 1451, 1150
3846,   62,  413,  928,   63
3847,  397,  929,  930,   61
3848, 1042, 1440, 1451, 1154
3849, 1530, 1584, 1504,  920
3850,  988, 1043, 1451, 1150
3851,  988, 1120, 1043, 1150
3852, 1043,  217, 1150,  218
3853, 1585, 1584, 1562, 1262
3854, 1595,  623, 1071, 1594
3855, 1383,  405,  407,  375
3856, 1070, 1382, 1071,  170
3857, 1376,  138, 1535, 1068
3858, 1241,  855, 1499, 1313
3859, 1261,  306,  290,  307
3860, 1069, 1382, 1068,  561
3861,   39,  369,  951,   40
3862, 1535, 1536,  139,  138
3863, 1604, 1606, 1381,  559
3864, 1624,  527, 1606,  558
3865, 1535, 1536, 1607,  139
3866, 1624, 1606, 1607, 1608
3867, 1229,  901,  931,  900
3868, 1268, 1625, 1555, 1599
3869, 1271,  294, 1422,  278
3870, 1114, 1444, 1293, 1207
3871, 1108,  690, 1586,  659
3872, 1091, 1265,  807, 1086
3873, 1108, 1207, 1109,  691
3874,  198, 1444, 1294, 1209
3875, 1209, 1450,  199,  198
3876, 1047, 1204, 1209,  199
3877, 1293, 1207,  661,  692
3878, 1401,  738, 1400,  739
3879, 1114, 1109, 1207,  692
3880, 1444, 1293, 1445, 1447
3881, 1108, 1208, 1586, 1204
3882, 1108, 1208,  660,  659
3883, 1561,  893,  924,  923
3884, 1283,  302,  286,  287
3885, 1408, 1405,  269,  270
3886, 1207, 1445, 1208, 1450
3887, 1310, 1388, 1598, 1396
3888, 1207, 1208, 1445,  660
3889, 1106, 1274,  751,  720
3890, 1109,  691, 1207,  692
3891, 1353, 1180,  677,  708
3892, 1278,  562,  531,  532
3893, 1401, 1400,  708,  739
3894, 1476, 1164,  984,  124
3895,  415, 1481,  108,  990
3896, 1350, 1163, 1159, 1166
3897, 1390, 1391, 1181,  222
3898, 1398, 1181,  207,  222
3899, 1361,  223, 1398,  207
3900, 1177, 1455, 1178, 1366
3901, 1214, 1210,  464,   68
3902, 1390,  221, 1391,  222
3903, 1115, 1626, 1587,  724
3904, 1109,  722, 1587, 1110
3905, 1274,  752,  721,  722
3906, 1274,  753, 1587, 1270
3907, 1110, 1587,  753,  722
3908, 1110, 1274,  721,  722
3909, 1604,  558, 1606,  559
3910,  996,  447,  448,  449
3911,   15,  419,  106,   16
3912, 1522,  424,  419,   15
3913, 1482, 1164,  123,  124
3914, 1210,  465,   69,   70
3915, 1376, 1535, 1382, 1068
3916, 1212,   70,  455,   71
3917,  416, 1210,   70, 1212
3918, 1376, 1534,  138, 1068
3919, 1376, 1536, 1535,  138
3920, 1210,  414,  415,  416
3921, 1376, 1278,  561,  530
3922, 1376, 1377,  138, 1534
3923, 1379, 1606, 1381, 1536
3924, 1214,  415,  414,  423
3925,  990,  108,  415,   18
3926, 1071, 1595, 1146,  623
3927, 1054,  884,  854,  885
3928, 1210, 1214, 1482, 1481
3929, 1317, 1145, 1593, 1144
3930, 1593, 1605, 1315,  171
3931,  170,  171, 1382, 1593
3932, 1578, 1481, 1537,  107
3933,  465,  464, 1210,   69
3934, 1593, 1621, 1317, 1315
3935, 1144,  202, 1120, 1150
3936, 1210,  465,   70,  466
3937, 1212,   70,  416,  455
3938,  468,   73,   72,  421
3939, 1293,  661, 1207, 1445
3940, 1209, 1444, 1294, 1114
3941, 1299, 1298, 1227,  211
3942,   74,  469,  420,   73
3943, 1579, 1387, 1388, 1580
3944, 1294, 1293, 1580, 1295
3945, 1108, 1209, 1208, 1204
3946, 1297,  421,  418,  419
3947, 1294, 1580, 1293, 1447
3948, 1578,   16,  107,  106
3949, 1296, 1378,  418,  468
3950, 1288,  959, 1001, 1227
3951, 1114, 1109,  692,  693
3952, 1293, 1295,  693,  694
3953, 1624,  525, 1575,  526
3954, 1496, 1576, 1495,  355
3955, 1215, 1227,  959,  210
3956, 1470, 1471, 1472, 1473
3957, 1522,  419,  424,  420
3958, 1476, 1624, 1517, 1575
3959, 1499, 1468, 1051,  854
3960,  104,   14,  979,  105
3961, 1234, 1252, 1559,  342
3962, 1521,  120,  104,  121
3963, 1108,  659, 1586, 1208
3964, 1476, 1164,  124,  140
3965, 1211, 1575,  495, 1603
3966,  467,   71, 1212,  418
3967, 1482, 1536, 1603, 1213
3968, 1624, 1575,  525, 1517
3969, 1624, 1606,  527, 1603
3970, 1164, 1536,  139, 1607
3971, 1210, 1213,  465,  466
3972, 1518, 1624, 1510, 1517
3973, 1618, 1607,  156,  155
3974, 1261,  306,  307,  323
3975, 1604, 1608,  558,  589
3976,  497, 1603,  528, 1379
3977, 1211,  464,  465,  495
3978, 1412,  110,  126,  109
3979, 1604, 1535, 1607, 1605
3980, 1340, 1538,  115, 1402
3981, 1250, 1220, 1219, 1402
3982,   68, 1214,  463,  464
3983, 1211,  496, 1603,  495
3984,  991,  981,  982,  983
3985, 1221, 1250, 1220, 1219
3986,  996,  449,  448,    4
3987,  447,   95,    1,    5
3988, 1250,  542,  512,  543
3989, 1250, 1041,  512,  511
3990, 1324, 1326,  510,  541
3991, 1227,  210,  227,  959
3992, 1496,   24,  354,  355
3993,  989, 1520,  980,  501
3994, 1324, 1320, 1335, 1323
3995, 1470,  984,  982,  109
3996,  975,  978,  428,  425
3997, 1261,  306,  323,  322
3998, 1244,  920,  919,  889
3999, 1378,  467, 1212,  418
4000, 1378, 1379, 1212,  467
4001,  103,   13, 1175,  104
4002, 1379, 1212,  466, 1213
4003, 1212,   71,  467,  466
4004,   14,  979,  105,  424
4005,  976,  473,  472,  428
4006, 1175,  426,  979,  104
4007,  151, 1203, 1463, 1123
4008, 1201,  103,  104,  120
4009, 1378, 1481, 1212, 1213
4010, 1296, 1378, 1578,  418
4011, 1055,  118,  135,  134
4012, 1482, 1537, 1213, 1481
4013, 1242,  855,  856,  886
4014,  976,  473,  428,  427
4015,  424,  426,  979,  425
4016, 1179,  676,  675,  645
4017, 1352,  616,  647,  677
4018, 1128, 1438,  642,  673
4019, 1436, 1178, 1141, 1439
4020,  762, 1292, 1018, 1610
4021, 1136, 1141,  192,  176
4022, 1322,  133,  117,  134
4023,  969, 1461,  970,  431
4024, 1380,  532,  531,  501
4025, 1167, 1141, 1128, 1138
4026, 1128,  673, 1436, 1438
4027, 1199,   96, 1527,   95
4028, 1198, 1477, 1194,  518
4029, 1559, 1571, 1238, 1073
4030,  994, 1475,  520,  997
4031,  994, 1514,  519,  520
4032, 1477,  994,  519,  518
4033, 1463,  151,  150,  134
4034,  488, 1198,  518,  994
4035, 1129, 1560, 1486,  334
4036,  473,   77,  428,  427
4037,  472,   77,   76,  428
4038, 1563,  892, 1585, 1600
4039,  355,  338,  354, 1576
4040,  975,  979, 1493,  980
4041, 1525, 1285, 1591,  288
4042, 1283, 1404, 1282, 1006
4043, 1280, 1386, 1561, 1508
4044, 1200,  536,  535,  505
4045, 1485, 1182, 1560, 1486
4046, 1173,  457,  427,  429
4047, 1616, 1130, 1182, 1486
4048, 1190,  772, 1404,  741
4049,  430, 1173,  475, 1030
4050, 1462, 1176, 1055,  118
4051, 1616, 1182,  833,  864
4052,  335, 1280,  351, 1454
4053, 1325,  117,  970, 1442
4054,  431, 1461,  430,  451
4055,  375, 1503,  351, 1383
4056, 1462, 1464, 1348,  537
4057, 1323,  148,  132,  149
4058, 1563, 1505, 1531, 1562
4059, 1383, 1503,  351, 1454
4060, 1383, 1503, 1385,  376
4061, 1503, 1385,  376, 1504
4062, 1562, 1505, 1531, 1504
4063,  474,  427,   78,  473
4064, 1461, 1030,  968, 1466
4065,  475,   79,  457,  430
4066, 1385, 1504,  953,  376
4067, 1386,  954, 1385,  923
4068, 1320, 1465,  539,  570
4069,  745, 1433, 1416, 1432
4070,  967, 1326,  508,  509
4071, 1341, 1075, 1258, 1074
4072, 1152, 1151, 1066, 1039
4073, 1030,  968,  476,  430
4074, 1176, 1461,  102,  118
4075, 1461,  431,  430,  429
4076, 1040, 1219, 1402,  512
4077, 1345,  911,  941,  910
4078, 1461,  101,  970,  431
4079,  967,  509,  508,  478
4080,  434,  970,  969,  432
4081, 1309,  571,  572,  602
4082,  967,   82,  433,  432
4083, 1257, 1263, 1073, 1238
4084, 1432, 1058,  251, 1066
4085, 1059, 1433,  714,  745
4086,  131,  114, 1185, 1402
4087,  967,  451,  433,   81
4088,  683, 1061,  713, 1059
4089, 1452, 1415, 1434,  268
4090, 1155,  747,  777,  746
4091, 1403,   99,    9,  100
4092,  774, 1192, 1416,  743
4093, 1576,  339,  355,  338
4094, 1198, 1199,  994,  443
4095, 1475, 1574, 1527, 1514
4096, 1173,  429,  430,  457
4097,  476,   80,  451,   81
4098,  477,   81,  476,  451
4099, 1620, 1574, 1514, 1577
4100, 1564, 1574, 1527,  112
4101, 1055, 1463,  135, 1203
4102, 1442,  118, 1461, 1466
4103, 1564, 1574, 1514, 1527
4104, 1345, 1073, 1571, 1559
4105, 1199,  995,  445,   95
4106, 1527,  995,   95,  111
4107,  828,  797, 1609, 1281
4108,  967,   81,  433,   82
4109,  372, 1496,   24,  354
4110, 1009,  768,  767,  737
4111, 1340, 1403, 1247,  100
4112, 1005, 1285,  271, 1286
4113,  967,  478,  477,   82
4114, 1010, 1582,  256, 1362
4115, 1285, 1286,  272,  271
4116, 1286, 1582,  272,  256
4117,  970,  100,  434,  101
4118,  100,   10, 1403, 1247
4119,  969,  434,  433,  431
4120, 1010, 1286,  256, 1582
4121, 1346, 1496, 1495, 1343
4122, 1004, 1010, 1286, 1007
4123, 1040, 1187, 1403, 1184
4124, 1590, 1623,  811, 1100
4125, 1073,  881,  911,  880
4126, 1340, 1325,  116,  100
4127, 1253,  940,  939,  909
4128, 1555, 1625, 1096, 1599
4129, 1619, 1371, 1370,  842
4130, 1556, 1623, 1100,  811
4131, 1403,   99, 1184,  439
4132, 1246,   83,  432,  458
4133, 1269, 1101,  782, 1557
4134, 1559, 1257, 1073, 1238
4135, 1590,  811, 1370,  810
4136, 1099, 1590, 1623, 1540
4137,  458,  435, 1246,   84
4138, 1094, 1589,  281,  282
4139,   87,   86,  482,  437
4140, 1213,  497,  496,  466
4141, 1246,   83,  458,   84
4142, 1448, 1018, 1548,  792
4143, 1355,  354, 1496,  372
4144, 1448,  761,  792,  791
4145, 1247,  434,   10,  436
4146, 1018, 1292,  762,  761
4147,    8,   98,  441,    7
4148, 1184,   99,   98,  439
4149, 1292, 1448, 1018, 1453
4150, 1185, 1402,  114, 1538
4151,  760, 1546, 1548, 1448
4152,  481, 1249,   85,  480
4153, 1498,  340,  339,  323
4154, 1189, 1196, 1195, 1197
4155,  377, 1343,   25,  355
4156,   98, 1186, 1184,  441
4157, 1448,  760,  791, 1548
4158,  459, 1532, 1184,  483
4159, 1448,  760, 1287,  730
4160, 1448,  760,  730,  761
4161, 1435,  916,  947,  946
4162, 1427,  963, 1425,  261
4163, 1342,  946,  945,  915
4164,  966, 1425, 1424,  963
4165, 1249,  481,   85,  438
4166,  963, 1111,  965,  964
4167,  966, 1270, 1272,  965
4168, 1111,  965, 1587, 1626
4169, 1111,  965,  964, 1272
4170, 1254,  245, 1111,  261
4171,  975,  977,  979,  980
4172,  424, 1493,  456,  979
4173, 1498,  339, 1497,  323
4174, 1195,  450,  486,  485
4175,  979,   14,  426,  424
4176, 1242, 1494, 1354, 1497
4177,  979,  426,   14,  104
4178, 1521,  979,  120, 1201
4179, 1196,   97,   96,    6
4180, 1521,  120,  979,  104
4181,  975,  979,  425,  456
4182, 1480,  146,  145, 1457
4183, 1479,  146, 1480, 1457
4184, 1493, 1522,  424,  420
4185,  976,  975,  428,  472
4186,  975,  978,  425,  979
4187,  971,  548, 1413, 1513
4188,  440,  485,  484,   89
4189,   89,  484,  440,   88
4190, 1140,  641,  640,  610
4191, 1558, 1367,  844, 1556
4192,   89,  485,  450,  440
4193, 1269,  783, 1557,  782
4194, 1557, 1101,  782, 1100
4195, 1099, 1572,  280,  296
4196,  483,  437,   87,  482
4197, 1245,  305,  306,  322
4198, 1070,  170, 1071,  169
4199,  130,  129,  146, 1457
4200, 1069, 1278,  563,  562
4201, 1067, 1068, 1534, 1278
4202, 1122, 1121, 1349,  998
4203, 1199, 1197,   96,  442
4204,  468,  499, 1520, 1296
4205, 1520,  980,  501,  470
4206, 1376, 1278, 1534, 1068
4207, 1593, 1071, 1382,  170
4208, 1197, 1196,   97,   96
4209, 1604,  560, 1594,  591
4210, 1145, 1467,  621,  652
4211, 1196,  442,  450,  441
4212, 1478,  516,  547,  546
4213, 1413, 1568, 1414, 1569
4214, 1477, 1194, 1569, 1414
4215, 1456,  129,  130, 1457
4216, 1199,  443,  442,  445
4217, 1219, 1222,  575,  576
4218, 1185, 1568, 1569, 1188
4219, 1532,   88,  483,  459
4220,  993,  445,  460,  443
4221,  515,  516, 1188, 1185
4222,  487,   91,  443,   92
4223, 1568, 1456, 1414,  113
4224, 1568, 1197,  113, 1414
4225, 1564, 1515, 1574,  128
4226, 1527,  112,  111,   95
4227, 1032, 1038, 1043, 1451
4228, 1142,  178,  177,  161
4229,   90,  450,  486,  444
4230, 1042, 1150,  217, 1154
4231,  687,  686, 1440, 1154
4232, 1065, 1120, 1063, 1119
4233,  623, 1145,  653, 1116
4234, 1117, 1150, 1451, 1154
4235,  447,  992,  993,  446
4236, 1412,  447,  995,  110
4237, 1135,  191,  190,  175
4238, 1116, 1144, 1147, 1145
4239,  983,  522,  491,  461
4240,  988, 1117,  685,  654
4241, 1559, 1258,  341, 1075
4242,  488,  460,   93,   92
4243, 1258, 1495, 1342, 1057
4244,  913, 1341,  914, 1057
4245, 1328, 1229, 1490, 1332
4246, 1148, 1491, 1374, 1373
4247, 1620,  552, 1475,  553
4248, 1473,  983,  522,  997
4249,  930, 1327, 1328, 1329
4250, 1332, 1328, 1230, 1331
4251, 1228, 1230, 1229,  412
4252, 1573,  909,  908,  878
4253, 1229, 1332, 1328, 1230
4254, 1229, 1230,  393,  412
4255,  995,   95,  110,  447
4256, 1470,  141,  125,  142
4257, 1490, 1229,  900,  901
4258, 1526, 1281,  829,  828
4259,  993,  447,  446,  445
4260, 1571,  909,  878,  879
4261, 1010, 1399,  239,  255
4262,  996,  449,  992,  447
4263, 1009, 1286, 1010, 1582
4264, 1479, 1457,  130,  146
4265, 1004, 1009,  768, 1012
4266,  983,  493,  492,  462
4267,  991,  990,  423,  422
4268, 1363, 1592,  766,  767
4269, 1592,  798, 1281,  797
4270,  797, 1609, 1281, 1592
4271, 1051, 1261,  307,  323
4272, 1257, 1498, 1495, 1057
4273, 1257, 1498, 1057, 1420
4274,  992,   94,  446,  449
4275,  449,  490,   94,    4
4276, 1051, 1420,  323,  307
4277, 1413,  974,  144,  145
4278, 1418, 1419, 1257, 1052
4279,  992,  446,   94,   93
4280, 1420,  307, 1016,  308
4281, 1419, 1226, 1239,  309
4282, 1296,  106, 1377,  122
4283, 1537, 1379, 1377, 1536
4284, 1379, 1603, 1536, 1213
4285, 1379, 1606, 1536, 1603
4286, 1040,  482,  513,  512
4287, 1568,   97, 1186,  113
4288, 1195,  440,  441,  450
4289, 1378, 1212, 1379, 1213
4290,   89,  450,  485,   90
4291, 1376, 1377, 1379, 1536
4292, 1040,  513, 1219,  512
4293, 1479, 1219,  545, 1026
4294, 1379, 1381,  528,  529
4295, 1312,  149,  165,  148
4296,  968,  477,  476,  451
4297,  986,  987,  400, 1276
4298, 1479,  515,  514, 1185
4299,  476,   80,  430,  451
4300,  991,  422,  452,  454
4301,  982,  991,  990,  981
4302, 1470, 1474, 1472,  126
4303, 1485,  894, 1182,  864
4304, 1485, 1277, 1508,  895
4305, 1412,  454,  448,  453
4306, 1484, 1333, 1275, 1334
4307, 1483, 1333, 1275, 1484
4308,  401, 1508, 1386, 1384
4309,  986, 1279,  366,  365
4310, 1470, 1476,  125,  141
4311, 1479, 1040, 1185,  514
4312, 1040, 1219,  513,  514
4313, 1210, 1482, 1211, 1213
4314,  986, 1280, 1279, 1508
4315, 1279, 1560,  350, 1486
4316, 1436,  672, 1566, 1438
4317, 1128, 1178, 1436,  674
4318, 1412,  453,  448,  447
4319, 1412,  110,  109,  453
4320, 1413,  144, 1515,  128
4321, 1141, 1143, 1167, 1438
4322, 1167, 1140,  611,  642
4323, 1376, 1381,  529,  530
4324,  417,  455, 1578, 1481
4325, 1413,  144,  128,  145
4326, 1566,  671, 1003,  640
4327, 1316,  588, 1618, 1608
4328, 1225, 1567, 1566, 1003
4329, 1606,  528,  558,  527
4330, 1510,  557, 1608,  588
4331, 1139,  641, 1566,  640
4332, 1146,  655,  654,  624
4333, 1569, 1194,  516, 1188
4334, 1482,  108,  124,  107
4335, 1139, 1143, 1141, 1438
4336,  470,  456,   75,   74
4337, 1573,  878,  908,  877
4338, 1183,  514, 1187,  483
4339, 1195, 1196,  450,  441
4340, 1183, 1186, 1188, 1532
4341, 1340, 1040, 1538, 1402
4342,  978,  976,  975,  428
4343, 1522,  105,  979,  424
4344, 1538, 1184,   98,  114
4345,  577, 1029,  578, 1478
4346,  474,   78,  457,   79
4347, 1184,  441,  439,   98
4348, 1196, 1186,   97,  441
4349, 1508,  986, 1384,  401
4350, 1561,  893, 1583,  894
4351, 1454, 1280, 1561, 1560
4352,  479,  432, 1248, 1246
4353, 1454, 1505, 1503,  352
4354, 1311,  634,  603,  604
4355, 1348,  507, 1466,  538
4356, 1454,  336, 1563, 1505
4357,  579, 1413,  971,  548
4358, 1312,  148, 1323,  149
4359, 1309, 1311,  603, 1336
4360, 1306, 1465, 1320,  570
4361,  483,   88,   87,  459
4362, 1335, 1320, 1309, 1323
4363, 1309, 1311,  602,  603
4364, 1181, 1353, 1389, 1400
4365, 1004, 1012, 1005, 1286
4366, 1413,  578,  579, 1029
4367, 1525,  287, 1285,  288
4368, 1198,  442,  443,  444
4369, 1284, 1131, 1283,  287
4370, 1016,  292, 1549, 1426
4371, 1507, 1398, 1399,  254
4372, 1004,  738, 1011,  769
4373, 1004,  799,  768,  769
4374, 1397, 1010, 1399,  239
4375, 1011,  769,  739,  770
4376,  463,  452,  423,   67
4377, 1603,  526,  495,  496
4378, 1558, 1235, 1429, 1554
4379, 1067,  998, 1347, 1068
4380, 1534,  138, 1068,  137
4381, 1380,  532, 1278,  531
4382, 1212,   71,  466,   70
4383, 1235,  327, 1429,  343
4384, 1211,  495,  465,  496
4385,  989, 1202, 1067,  533
4386,  466, 1379,  497,  467
4387, 1535,  139, 1607,  155
4388, 1604,  559, 1381,  560
4389,  499,  498, 1376, 1378
4390, 1378,  418,  468,  467
4391,  989, 1521, 1534, 1347
4392, 1624, 1164, 1606, 1603
4393, 1513,  550, 1514, 1577
4394, 1382, 1535,  155,  154
4395, 1555, 1619, 1623, 1556
4396, 1555, 1623, 1099, 1100
4397, 1430, 1612,  873, 1371
4398,  461,   65,  454,   66
4399, 1555, 1619,  312, 1623
4400,  981,  493,  983,  462
4401,  491,    4,  448,   65
4402,  997,  521,  520,  490
4403,  126, 1412,  109, 1470
4404,  906, 1431, 1428,  875
4405, 1090, 1089, 1083, 1084
4406, 1539, 1601, 1616, 1602
4407, 1089, 1602, 1488, 1601
4408, 1084, 1601,  835,  866
4409, 1458,  189,  173,  190
4410, 1539, 1602,  333,  332
4411,  489,  994,  992,  460
4412, 1602, 1539, 1486, 1616
4413,  461,  491,  448,   65
4414, 1313,  855,  824,  825
4415,  991,  452,  422,  423
4416,  462,   67,   66,  452
4417,  983,  462,  492,  461
4418, 1089, 1090, 1602, 1084
4419, 1165, 1316, 1315, 1317
4420, 1618, 1510, 1608,  588
4421, 1471,  142, 1519,  158
4422,  462,  461,  454,   66
4423, 1316, 1317,  619,  620
4424, 1378, 1379,  467,  498
4425,  463,   67,  462,  452
4426, 1165, 1315, 1318,  188
4427, 1593,  171, 1315,  187
4428,  991,  463,  462,  452
4429, 1621, 1317, 1145, 1593
4430, 1316,  588, 1608,  589
4431, 1621, 1315, 1316, 1317
4432,  423,   68, 1214,  463
4433,  498,  467,  497, 1379
4434, 1566, 1224, 1443, 1437
4435, 1213,  465,  466,  496
4436, 1215,  210, 1224,  194
4437, 1224, 1437,  209, 1443
4438,  277,  261, 1425,  278
4439, 1603,  497,  527,  496
4440, 1224,  210, 1216,  209
4441, 1148, 1372, 1490, 1502
4442, 1374,  961, 1229,  902
4443, 1606, 1607, 1535, 1536
4444,   71,  418,  467,   72
4445, 1477,  549,  548,  518
4446,  957,  935,  388,   55
4447, 1491, 1374, 1373, 1375
4448, 1491, 1374, 1375,  961
4449, 1479, 1027,  130,  131
4450, 1624,  556,  525,  526
4451,  130,  114, 1185,  131
4452, 1375,  872, 1371,  873
4453, 1375, 1371,  872,  871
4454, 1423,  965, 1424,  787
4455,  456,  979,  425,  424
4456, 1161,  187,  204,  203
4457, 1368, 1554, 1237,  877
4458, 1607,  155,  139,  156
4459, 1494, 1354, 1497, 1356
4460, 1297,  421,  420,   73
4461, 1068,  138,  154,  137
4462, 1596, 1497,  338,  322
4463,  975,  472,  471,   76
4464, 1497,  339, 1356,  338
4465, 1261, 1468, 1245, 1497
4466, 1520,  499,  469,  500
4467, 1261,  323, 1497,  322
4468, 1518, 1618, 1607,  156
4469, 1425,  261,  277, 1427
4470, 1347,  137,  120,  121
4471,  980,  501,  471,  502
4472,  989,  502, 1202,  533
4473, 1518, 1510, 1618, 1511
4474, 1518, 1476, 1164, 1624
4475, 1314, 1315, 1618, 1511
4476, 1314,  586, 1510,  587
4477,  136, 1347, 1203,  152
4478, 1624, 1607, 1618, 1608
4479,  473,  472,  428,   77
4480, 1624, 1510,  557, 1608
4481, 1570,  595,  564,  565
4482, 1296, 1534,  121,  122
4483,  976,  474,  427, 1173
4484, 1557, 1100,  782,  813
4485, 1102, 1273,  264,  280
4486, 1173,  475,  474,  457
4487,  977,  472,  503,  502
4488, 1466, 1176, 1030, 1348
4489, 1099,  297, 1589, 1540
4490, 1265,  808,  777,  778
4491, 1370,  841,  810,  811
4492, 1069,  563,  593,  562
4493, 1101, 1100,  781,  782
4494, 1368,  907,  906,  876
4495, 1183, 1532,  484,  483
4496, 1108, 1205, 1586,  690
4497, 1597, 1208, 1021, 1617
4498, 1209,  199, 1204,  215
4499, 1321,  150,  133,  134
4500, 1030,  506,  475,  476
4501, 1324, 1326, 1248,  510
4502, 1450, 1449,  183,  182
4503,  968,  477,  507,  476
4504, 1304, 1449, 1446, 1444
4505, 1248,  479,  510,  509
4506, 1542,  535,  536,  566
4507, 1445,  629, 1446,  630
4508, 1459, 1509,  585,  615
4509, 1392, 1460, 1459, 1352
4510,  967,  432,  433,  969
4511, 1465,  569,  539,  570
4512, 1312,  165,  164,  148
4513, 1326,  509,  539,  508
4514, 1458, 1512,  173, 1511
4515, 1458, 1512,  174,  173
4516,  480,  435,   85,   84
4517, 1322, 1339,  117,  133
4518, 1246,  434,  458,  432
4519, 1321,  150,  149,  133
4520, 1156, 1159, 1163, 1166
4521,  261,  963, 1425,  964
4522, 1352, 1459,  616,  646
4523,  479,  478,  432,   83
4524, 1427, 1426,  276,  277
4525, 1593, 1144,  186,  187
4526, 1621, 1316,  589,  620
4527, 1144, 1317, 1145, 1467
4528, 1498, 1054, 1468, 1056
4529, 1326,  510,  540,  509
4530, 1219, 1222,  544,  575
4531, 1320,  541,  571,  540
4532, 1425,  294,  293,  277
4533, 1118, 1145,  652, 1467
4534, 1621, 1317,  620,  621
4535, 1324, 1041,  511,  510
4536, 1621,  589, 1604,  590
4537,  481,   85,  438,   86
4538, 1194,  516,  485,  486
4539, 1315, 1316, 1618, 1605
4540, 1089, 1084, 1601, 1085
4541, 1222,  606,  605,  575
4542, 1096,  847, 1237,  846
4543, 1488,  301, 1049, 1130
4544, 1000, 1002, 1299, 1001
4545, 1487, 1049, 1488,  301
4546, 1567,  177,  194,  193
4547,  973,  580,  611,  610
4548,  973,  580,  610,  579
4549, 1553, 1085,  835,  804
4550, 1198,  487,  486,  444
4551,  972,  974,  145,  161
4552,  486,   90,  444,   91
4553, 1564,  112, 1414,  128
4554, 1485, 1182, 1616,  864
4555, 1413, 1480,  145, 1457
4556, 1027,  146,  130,  147
4557, 1616, 1539, 1486, 1484
4558, 1084,  836,  866,  835
4559, 1625, 1529, 1422, 1239
4560, 1276, 1279, 1277, 1508
4561,  929,  928, 1327,  898
4562, 1015,  291,  290,  274
4563,   90,  450,  485,  486
4564, 1425, 1422,  294,  278
4565, 1426, 1425,  277, 1427
4566,  985,  349, 1279,  365
4567, 1485, 1616, 1484,  865
4568,  487,  486,  444,   91
4569, 1485, 1486, 1279, 1483
4570,  488,   92,  443,  460
4571,  486, 1189, 1195, 1194
4572,  985, 1279,  987,  986
4573, 1276, 1277,  926, 1508
4574, 1277,  926,  895,  896
4575, 1275, 1484,  896, 1483
4576, 1275, 1484,  897,  896
4577,  488,  487,  443,   92
4578, 1425,  294,  277,  278
4579,  994,  488,  489,  519
4580, 1279,  985,  987, 1483
4581, 1204,  200, 1045,  216
4582,  489,  488,  460,   93
4583, 1172,  143,  159,  158
4584,  449,    4,  996,  490
4585, 1047, 1045, 1204,  200
4586, 1045, 1046,  657, 1022
4587,  994,  489,  520,  519
4588, 1137,  159,  175,  174
4589, 1519,  127,  143,  142
4590,  997,  521,  490,  491
4591,  992,  490,  489,   94
4592, 1519,  158,  142,  143
4593, 1208,  660,  659,  629
4594,  994, 1527,  997,  995
4595, 1104, 1204, 1586, 1045
4596, 1104,  216, 1204, 1045
4597, 1470,  141, 1471, 1476
4598, 1412,  454,  982,  983
4599,  982,  453,  422,  454
4600,  981,  463,  493,  462
4601,  543,  574, 1221,  573
4602, 1330,  364, 1331,  363
4603, 1333, 1539, 1484, 1483
4604, 1334,  332,  331, 1502
4605, 1211, 1213, 1482, 1603
4606, 1334,  331,  348,  347
4607, 1126, 1171,  615,  614
4608, 1210, 1481, 1213, 1212
4609, 1533, 1255, 1544, 1546
4610, 1330,  363, 1332,  347
4611, 1333, 1275, 1334, 1327
4612,  981,  494,  493,  463
4613, 1575,  524,  493,  494
4614, 1614, 1275, 1484,  897
4615, 1594,  592, 1595,  623
4616,  469, 1297,   73,  468
4617, 1330, 1329, 1334, 1332
4618, 1211,  495,  494,  464
4619, 1596,  337, 1531,  321
4620, 1618,  172,  155,  156
4621, 1242, 1530, 1354,  919
4622, 1262,  305, 1245,  321
4623, 1545,  790,  820,  789
4624, 1242,  919, 1354,  918
4625, 1603,  528,  527,  497
4626, 1164,  140, 1607,  139
4627, 1242, 1244,  919,  888
4628, 1415,  284,  267,  268
4629, 1596,  338, 1358,  337
4630, 1268,  279, 1272,  263
4631, 1242,  917,  886,  887
4632, 1606,  528,  559,  558
4633, 1315,  172, 1318,  188
4634, 1242, 1354,  917,  918
4635,  964,  965,  966, 1272
4636, 1067, 1380,  989,  532
4637,  966,  963, 1424,  965
4638, 1596,  338, 1356, 1358
4639, 1485, 1277,  896, 1483
4640, 1543, 1545, 1424,  788
4641, 1129,  318, 1486, 1130
4642,  976,  504,  473,  474
4643, 1546, 1533, 1255, 1287
4644,  561, 1382, 1068, 1376
4645, 1279, 1280, 1560, 1508
4646,  989, 1067,  532,  533
4647, 1484, 1485, 1486, 1616
4648,  960, 1298, 1256,  244
4649,  791, 1543, 1548, 1546
4650,  894, 1561, 1485, 1182
4651, 1312, 1305,  149, 1306
4652, 1306, 1309, 1320, 1323
4653, 1322,  117, 1325, 1442
4654, 1520,  500,  470,  501
4655, 1322, 1339,  133, 1323
4656, 1067, 1069, 1278,  563
4657, 1070,  998,  153,  169
4658, 1335, 1309, 1320,  572
4659, 1326,  539, 1320, 1465
4660, 1338, 1220, 1323, 1221
4661,  151, 1122, 1550,  167
4662, 1326, 1320,  539,  540
4663, 1382, 1594,  561, 1069
4664, 1430, 1619, 1371, 1541
4665, 1367, 1554,  845,  846
4666,  989,  980,  502,  501
4667, 1558, 1612, 1554, 1429
4668, 1558, 1429,  327,  328
4669, 1430, 1558,  328, 1429
4670, 1096, 1554,  846, 1237
4671, 1558, 1235, 1554, 1237
4672, 1030,  505,  474,  475
4673, 1146,  654,  623,  624
4674, 1202,  989, 1347,  977
4675, 1220, 1027,  131,  147
4676, 1367,  844, 1556,  813
4677,  976,  505,  504,  474
4678,  755, 1587, 1270,  965
4679, 1587, 1270,  753,  754
4680, 1308, 1303, 1309,  601
4681,  243, 1292, 1448, 1287
4682,  976,  472,  473,  503
4683, 1430, 1612, 1558, 1429
4684, 1368, 1235, 1554, 1429
4685, 1558, 1236, 1235, 1237
4686, 1322, 1339, 1325,  117
4687, 1521,  104,  105,  121
4688, 1558, 1235,  327, 1429
4689, 1348,  537,  506,  507
4690, 1617,  598, 1552,  599
4691, 1554,  846, 1237,  877
4692, 1430, 1429,  328,  344
4693, 1096,  815, 1367, 1557
4694, 1368, 1573,  877, 1237
4695,  968,  508,  507,  477
4696, 1612, 1554, 1429,  875
4697,  165, 1312, 1305,  149
4698, 1220,  148,  147,  131
4699, 1368, 1554,  875, 1429
4700, 1026,  576,  545,  546
4701, 1448,  791,  760,  761
4702, 1335, 1312, 1323, 1309
4703, 1324,  511,  541,  510
4704, 1306,  149, 1323,  133
4705, 1056, 1495, 1342, 1435
4706,  967, 1248,  478,  432
4707, 1054, 1052,  883, 1057
4708, 1250, 1041, 1402,  512
4709, 1601,  834,  835,  865
4710, 1498, 1054, 1057, 1420
4711, 1054, 1056,  884,  885
4712, 1466,  508, 1326,  539
4713, 1041,  480,  511,  510
4714, 1498, 1420,  324,  323
4715, 1335,  542,  572,  541
4716, 1169,  581, 1577,  582
4717, 1096, 1469, 1529,  847
4718, 1413,  548,  578,  547
4719, 1096, 1469,  847,  816
4720, 1233,  847, 1236, 1529
4721, 1029, 1140, 1139,  609
4722, 1571, 1233, 1263,  880
4723, 1413, 1478, 1480, 1457
4724, 1233,  847, 1529,  848
4725, 1479, 1480, 1027, 1026
4726, 1263, 1233, 1529,  849
4727, 1564, 1199, 1527,  994
4728,  515,  485, 1188,  516
4729, 1423,  818, 1529,  817
4730, 1031,  638,  607,  608
4731, 1423, 1424,  819,  818
4732, 1185,  131, 1479,  130
4733,  388, 1079,  411,  962
4734, 1578, 1481,  107,   17
4735,  957, 1228,  390,  392
4736,  389,  360,  387, 1079
4737, 1143,  177,  176,  160
4738, 1309,  602,  601,  571
4739, 1578,  107, 1537,  106
4740,   29,  389,  360,  387
4741, 1478, 1026,  546,  577
4742, 1079,  344, 1232,  360
4743, 1428,  344, 1079, 1078
4744, 1378, 1578, 1481, 1537
4745, 1574, 1514, 1515, 1564
4746, 1291,  728, 1533,  697
4747, 1076,  386,  387,  385
4748, 1622,  127,  144,  143
4749, 1081, 1368, 1077, 1078
4750, 1076, 1081,  938, 1077
4751, 1290, 1292, 1217,  959
4752,  389, 1079,  411,  388
4753, 1611, 1613,  258,  257
4754, 1019, 1170, 1255,  259
4755, 1287,  243,  960, 1255
4756,  261, 1425,  278,  964
4757, 1546, 1287, 1448,  760
4758, 1543, 1549, 1255, 1427
4759,  997,  521,  491,  522
4760, 1475,  553,  552,  522
4761, 1019, 1255, 1549,  259
4762, 1610,  763,  764,  794
4763, 1474,  995, 1527,  111
4764, 1472,  111, 1574,  127
4765, 1172,  143, 1168,  159
4766, 1597, 1550, 1449, 1617
4767, 1577,  582,  581,  551
4768, 1445,  660,  630,  661
4769, 1473,  983,  493,  492
4770, 1472,  126, 1474,  111
4771, 1512,  173,  157,  174
4772, 1617, 1446, 1552, 1550
4773, 1597, 1450, 1047, 1208
4774, 1475, 1574, 1514, 1620
4775, 1446, 1617, 1552,  599
4776, 1431,  905,  904,  874
4777, 1304, 1447, 1446, 1307
4778, 1473,  523,  553,  492
4779, 1473,  524,  523,  493
4780, 1124, 1179, 1127,  644
4781,  586, 1314, 1459,  617
4782, 1510, 1518,  555, 1509
4783, 1491, 1374, 1229, 1332
4784, 1391,  221,  205,  222
4785,  391,  392,  958,  957
4786, 1077,  907,  938,  937
4787, 1471,  157, 1518,  141
4788, 1624, 1510,  556,  557
4789,  495,  526, 1603, 1575
4790, 1127, 1179, 1135, 1180
4791, 1510,  555, 1517,  556
4792, 1575,  525,  524,  494
4793,  526, 1603, 1575, 1624
4794,  394,  362,  392, 1230
4795, 1491, 1229, 1230, 1332
4796, 1332, 1491,  362, 1230
4797,  346, 1332, 1491,  362
4798, 1331,  394, 1230,  363
4799, 1230,  362, 1332,  363
4800, 1575,  526,  525,  495
4801, 1431,  875,  905,  874
4802,  591, 1604, 1621, 1594
4803,   69,  414,   68, 1210
4804, 1594,  560, 1381,  561
4805, 1104, 1106, 1586, 1205
4806, 1593,  170,  171,  187
4807, 1603,  527,  526,  496
4808, 1110, 1205,  690,  721
4809, 1604,  559,  590,  589
4810, 1381,  559,  528,  529
4811, 1242, 1468, 1494, 1497
4812, 1242, 1596, 1497, 1354
4813, 1069, 1023,  998, 1595
4814, 1496, 1356, 1576,  354
4815, 1257, 1498,  324,  340
4816, 1536,  123,  139,  122
4817, 1394,  605,  636,  635
4818, 1084,  867,  837,  868
4819, 1536,  122,  139,  138
4820, 1496, 1495, 1356, 1435
4821,  683, 1065, 1467, 1162
4822, 1450, 1207, 1444, 1209
4823, 1588, 1113, 1115, 1254
4824, 1207, 1444, 1209, 1114
4825, 1479, 1480,  146, 1027
4826, 1068,  154,  153,  137
4827, 1293,  662, 1445, 1447
4828, 1347,  136,  153,  152
4829, 1202,  533,  502,  503
4830, 1108,  660, 1207,  691
4831, 1376,  499,  530,  529
4832, 1621, 1145,  621,  622
4833, 1381,  560,  529,  530
4834,  957,  961, 1232,  962
4835, 1114, 1209,  214, 1294
4836, 1380,  500,  531,  530
4837, 1015, 1499, 1014, 1313
4838, 1108, 1103, 1205, 1110
4839, 1107, 1110, 1112, 1206
4840, 1253,  941,  383,  940
4841, 1349,  594, 1069,  563
4842, 1032,  250,  233,  234
4843, 1594,  622,  592,  623
4844, 1594, 1069, 1595,  592
4845, 1067,  564,  563,  533
4846, 1050,  998,  169,  168
4847, 1430, 1558, 1619,  328
4848, 1492, 1101, 1273, 1102
4849, 1099, 1273, 1102,  280
4850, 1035, 1102, 1273,  264
4851, 1036, 1104, 1106, 1034
4852, 1202, 1200,  534,  503
4853, 1268, 1572,  279, 1273
4854, 1050,  184,  168,  185
4855, 1100,  813,  812,  782
4856, 1173, 1176, 1030, 1461
4857, 1270, 1268, 1272, 1112
4858, 1617,  598,  628,  597
4859, 1349,  594,  563,  564
4860, 1597, 1449, 1208, 1617
4861, 1105,  263, 1112,  247
4862, 1462, 1176, 1348, 1055
4863, 1200,  535,  534,  504
4864, 1348,  506,  536,  505
4865, 1542,  567,  566,  536
4866, 1462, 1348, 1464, 1055
4867, 1550, 1446, 1552, 1307
4868, 1464,  567,  536,  537
4869, 1542, 1200,  536,  535
4870, 1550,  150, 1463,  151
4871, 1148,  331,  347,  330
4872, 1021,  627,  596,  597
4873, 1292, 1448, 1453, 1170
4874, 1464, 1463, 1542, 1551
4875, 1551, 1550, 1463, 1123
4876, 1348,  537,  536,  506
4877, 1463, 1321,  134,  150
4878, 1339,  133,  116,  117
4879, 1542, 1551, 1123, 1570
4880, 1551, 1463, 1550, 1552
4881, 1579, 1291, 1533,  697
4882, 1466,  539,  538,  508
4883, 1305,  166, 1550, 1307
4884, 1320,  570,  539,  540
4885, 1571,  879, 1233,  880
4886, 1430,  873, 1375, 1371
4887, 1625, 1239, 1422,  310
4888, 1226,  293, 1422,  309
4889, 1419, 1257,  325, 1238
4890, 1013, 1018,  792, 1548
4891, 1320,  541,  572,  571
4892, 1255,  244,  260,  243
4893, 1303,  601, 1307,  570
4894, 1322, 1326, 1320, 1465
4895, 1546,  789,  758,  759
4896, 1466, 1326,  508, 1442
4897,  731,  762,  732, 1217
4898, 1307, 1446,  600,  601
4899, 1287, 1546, 1533,  728
4900, 1546,  728,  758, 1533
4901, 1220,  148,  131,  132
4902, 1464,  568, 1319, 1552
4903, 1462,  538, 1466, 1465
4904, 1335, 1221,  573,  542
4905, 1176, 1348, 1200,  505
4906, 1324,  542,  541,  511
4907, 1462,  134, 1463, 1321
4908, 1374,  871, 1375,  902
4909, 1176, 1462, 1466,  118
4910, 1306, 1319, 1465,  570
4911, 1462, 1321, 1319, 1465
4912, 1464,  537, 1319,  568
4913, 1306, 1321, 1322, 1465
4914, 1552, 1319, 1550, 1307
4915, 1305,  149,  150,  166
4916, 1395,  179,  162,  163
4917, 1304, 1308, 1447, 1307
4918,  514, 1219, 1479, 1040
4919, 1222,  574, 1221,  543
4920, 1003, 1031,  639,  638
4921, 1301,  666,  667,  697
4922,  197, 1444, 1308, 1387
4923, 1293, 1447,  663,  662
4924, 1333,  985, 1483, 1275
4925, 1447, 1308,  601, 1307
4926, 1114, 1113,  214,  230
4927, 1447, 1308,  632,  601
4928, 1430, 1431, 1612, 1429
4929, 1089, 1417, 1488,  300
4930,  906, 1431,  962, 1428
4931, 1428, 1429,  344, 1078
4932, 1429, 1078,  343,  344
4933, 1456, 1414,  113,  129
4934,  999,  669,  638,  639
4935, 1554,  845,  875,  844
4936, 1564, 1414, 1197, 1194
4937, 1368, 1077,  906,  907
4938,  669,  668,  999,  638
4939, 1611,  257, 1362, 1613
4940, 1491,  961, 1375, 1232
4941, 1592, 1501,  765,  796
4942, 1609,  797,  827,  796
4943, 1281,  829,  828,  798
4944, 1171,  613,  582,  583
4945, 1477, 1194,  518,  517
4946, 1582,  256,  273,  272
4947,  971,  549,  580,  579
4948, 1341, 1343, 1346, 1342
4949, 1139,  177, 1567,  193
4950, 1513,  581,  973,  580
4951, 1128,  674,  673,  643
4952,  729, 1287, 1546,  760
4953, 1437, 1439,  192,  208
4954, 1437,  209, 1439,  208
4955, 1143, 1141,  176,  177
4956,  981,  463,  991,  423
4957, 1211, 1164, 1575, 1603
4958, 1620,  583,  552,  553
4959, 1514,  551,  550,  520
4960, 1138, 1143,  160,  974
4961, 1458, 1318,  173,  189
4962,  982, 1412,  109,  453
4963, 1126,  644,  613,  614
4964,  997,  996, 1474,  983
4965, 1473,  553,  522,  492
4966, 1167,  642,  611,  612
4967, 1475,  552,  521,  522
4968, 1138, 1143,  974, 1167
4969, 1513, 1413, 1414, 1569
4970, 1512, 1519, 1172,  158
4971, 1391, 1181,  222,  206
4972, 1126,  645,  615,  646
4973,  984, 1470,  125,  109
4974, 1516,  555,  554,  524
4975,  109, 1470, 1412,  982
4976, 1472,  111, 1474, 1527
4977, 1620,  553, 1516,  584
4978,  983, 1412,  454,  448
4979, 1473,  984,  493,  983
4980, 1375,  873,  903,  872
4981, 1163,  188,  205,  204
4982, 1517,  555,  524,  525
4983, 1165, 1318, 1166, 1163
4984, 1203, 1201,  120,  119
4985, 1509,  586,  585,  555
4986, 1510,  586, 1509,  555
4987, 1121, 1202, 1203, 1123
4988, 1624,  558,  557,  527
4989, 1314,  588,  619,  618
4990, 1593, 1621, 1315, 1605
4991, 1381,  560,  559,  529
4992,  977, 1201, 1203, 1200
4993, 1202, 1542, 1203, 1123
4994, 1316,  620,  619,  589
4995, 1203,  152, 1123,  151
4996, 1203,  135,  152,  151
4997,  619,  618, 1156, 1165
4998, 1604,  590,  559,  560
4999, 1490, 1229,  931,  900
5000, 1144, 1467, 1161, 1317
5001, 1316,  619,  588,  589
5002, 1203,  136,  152,  135
5003, 1462, 1176, 1466, 1348
5004, 1464, 1055, 1542, 1463
5005, 1348, 1200,  505,  536
5006, 1176, 1200,  976,  505
5007,  977,  989, 1347, 1521
5008, 1608,  589,  588,  558
5009, 1278,  531,  561,  530
5010,  977,  980,  471,  502
5011, 1200,  503,  976,  504
5012, 1549,  275,  259,  276
5013, 1381,  530,  561,  560
5014, 1448, 1546, 1548, 1255
5015,  591,  622, 1594, 1621
5016, 1023, 1595,  594,  625
5017, 1070,  170,  169,  153
5018, 1069,  562,  593,  592
5019, 1339, 1323,  132,  133
5020, 1070,  154,  170,  153
5021, 1068,  561, 1278, 1069
5022,  510, 1041, 1246, 1324
5023, 1521,  121, 1347,  120
5024,  120, 1201, 1203, 1347
5025, 1347,  998,  153, 1068
5026, 1122,  151, 1123,  152
5027, 1272,  279,  278,  262
5028, 1493,  980, 1521, 1520
5029,  977,  979, 1521, 1201
5030, 1377,  106, 1537,  122
5031, 1521, 1296, 1520, 1534
5032, 1297,   73,  468,  421
5033, 1444, 1449, 1445, 1450
5034,  977,  989, 1521,  980
5035, 1303,  181, 1308, 1310
5036,  152,  168, 1122,  151
5037, 1570, 1349,  564,  595
5038, 1069,  563,  594,  593
5039, 1036,  232,  233,  249
5040, 1521, 1534, 1347,  121
5041,  989, 1520, 1521,  980
5042, 1349,  595,  594,  564
5043, 1493, 1522,  979,  424
5044, 1023,  625,  594,  595
5045, 1521,  979,  105,  104
5046, 1104,  215,  232,  231
5047,  975,  471,   75,   76
5048, 1551,  597,  566,  567
5049, 1202,  534, 1542,  565
5050, 1319,  600, 1307,  599
5051, 1319,  538, 1465,  569
5052, 1324, 1325, 1340, 1041
5053, 1338,  115,  132,  131
5054, 1040, 1402, 1041,  512
5055, 1309,  601,  570,  571
5056, 1445, 1617, 1446,  629
5057, 1465,  538,  539,  569
5058, 1550,  166, 1449, 1307
5059, 1041,  511,  481,  512
5060, 1246, 1248,  479,  510
5061, 1340, 1339,  116, 1325
5062, 1187,  459,  437,  439
5063, 1464,  568,  567,  537
5064, 1479, 1402, 1220,  131
5065, 1468, 1498, 1494, 1497
5066,  277,  276, 1427,  260
5067, 1306, 1312, 1323,  149
5068,  915,  916, 1056, 1435
5069, 1335,  148, 1337, 1221
5070, 1303,  181, 1310,  165
5071, 1293,  663,  693,  662
5072, 1346, 1496, 1343,  377
5073, 1396,  180,  196,  179
5074,  179,  163, 1396,  180
5075, 1056, 1057,  883,  914
5076, 1303, 1308, 1307,  601
5077, 1494, 1356, 1495, 1435
5078, 1335, 1336,  573, 1221
5079, 1444,  198,  181,  182
5080, 1343,  356, 1495,  340
5081, 1257, 1498, 1420,  324
5082, 1528,  803,  834,  833
5083, 1498, 1056, 1495, 1057
5084, 1528, 1616, 1182,  833
5085, 1183, 1185, 1040,  514
5086, 1447,  633,  632, 1308
5087, 1491, 1231,  362, 1230
5088, 1491, 1374,  961, 1229
5089, 1332,  362,  346,  363
5090, 1026,  576,  546,  577
5091, 1057,  882,  883,  913
5092,  957,  961,  935,  934
5093,  958, 1079,  962, 1232
5094, 1028, 1223, 1395, 1393
5095, 1079,  360, 1078,  344
5096, 1567, 1224,  193,  194
5097, 1294, 1300, 1387,  213
5098, 1430, 1491, 1232,  345
5099, 1428, 1430, 1431, 1232
5100, 1394,  605,  635,  604
5101, 1430, 1375, 1491, 1373
5102, 1000, 1001, 1410,  667
5103, 1254, 1588, 1113, 1256
5104, 1222,  605,  574,  575
5105, 1107,  230, 1206,  246
5106, 1587,  755, 1626,  965
5107, 1394,  637,  636,  606
5108, 1437,  193,  209,  192
5109,  963, 1424,  965, 1626
5110, 1626,  756,  965,  755
5111, 1513,  580,  550,  581
5112, 1028,  607,  637,  606
5113, 1333,  985, 1327,  364
5114, 1024,  577,  608,  607
5115, 1567,  178, 1223,  194
5116, 1107, 1111, 1115, 1113
5117, 1414,  129,  112,  113
5118,  578, 1478,  547,  577
5119, 1224, 1443, 1216, 1565
5120, 1235,  343, 1078, 1252
5121, 1428, 1429, 1430,  344
5122, 1421, 1424, 1425, 1427
5123, 1543, 1547, 1545,  790
5124, 1125, 1172, 1137, 1126
5125, 1169,  613,  612,  582
5126, 1494,  886,  917,  916
5127, 1549,  276,  260, 1427
5128, 1013, 1549, 1019, 1548
5129, 1143,  974,  972,  161
5130, 1622,  974,  973, 1168
5131, 1019, 1549, 1255, 1548
5132, 1136,  192,  191,  175
5133, 1255,  260, 1549,  259
5134, 1509,  555,  585,  554
5135, 1505,  337, 1531, 1358
5136, 1398,  238,  222,  223
5137, 1562, 1262, 1563, 1585
5138, 1374, 1229,  901,  902
5139, 1620,  552,  583,  582
5140, 1413, 1515,  974,  971
5141, 1171,  615,  614,  584
5142, 1459,  646,  615,  585
5143, 1505,  336, 1531,  337
5144,  320, 1531, 1262, 1563
5145, 1128, 1438, 1167,  642
5146, 1558, 1096, 1554, 1367
5147, 1081,  908, 1573, 1253
5148, 1620,  583,  553,  584
5149, 1138, 1137,  159,  175
5150, 1513, 1515,  973, 1577
5151, 1233,  879,  878,  848
5152, 1558, 1096, 1236, 1237
5153, 1510,  588,  587,  557
5154, 1375,  902,  871,  872
5155, 1360,  705,  735,  704
5156, 1458, 1318, 1314, 1511
5157, 1234,  878, 1233,  879
5158, 1234, 1571,  879, 1233
5159,  582, 1171, 1169,  613
5160, 1368, 1573, 1237, 1235
5161, 1116, 1144, 1120, 1150
5162, 1023,  594, 1069, 1349
5163, 1460, 1126, 1352, 1179
5164, 1597, 1047,  183,  184
5165, 1208, 1617,  629,  628
5166, 1046,  658,  627,  628
5167, 1539,  332,  333,  349
5168, 1597, 1449,  167,  183
5169, 1047, 1450,  183,  199
5170, 1021, 1046,  626,  627
5171, 1166,  648,  617,  618
5172, 1160,  219,  203,  220
5173, 1044, 1021, 1046, 1022
5174, 1510,  557,  587,  556
5175, 1314,  618, 1166,  617
5176, 1229,  932,  901,  902
5177, 1159,  679,  648,  649
5178, 1314,  618,  617,  587
5179, 1089, 1601, 1084, 1602
5180, 1333, 1334, 1539,  348
5181, 1069, 1595,  593,  594
5182, 1485,  865, 1484,  896
5183, 1601,  866, 1484,  865
5184, 1604,  591,  590,  560
5185, 1150,  201,  202,  218
5186, 1434,  268,  251,  252
5187, 1528,  834, 1616,  833
5188, 1275, 1277,  896,  927
5189, 1594,  591,  560,  561
5190, 1407,  710,  709,  679
5191, 1621,  621,  590,  591
5192, 1160, 1158,  220,  204
5193, 1602, 1089,  316, 1090
5194, 1614, 1275,  897,  898
5195,  376, 1383,  375,  405
5196, 1243, 1260, 1262,  859
5197, 1593, 1161,  187, 1315
5198, 1584,  890, 1243, 1262
5199, 1067, 1278, 1069, 1068
5200, 1161, 1162, 1317, 1467
5201, 1593,  186, 1071,  170
5202, 1005, 1284,  830, 1282
5203, 1525,  303, 1131,  287
5204, 1021,  596,  626,  595
5205, 1526,  861,  860,  830
5206, 1021,  627,  626,  596
5207, 1583,  892,  861,  862
5208,  217, 1048, 1150,  201
5209, 1595,  625,  624,  594
5210, 1583,  893,  892,  862
5211, 1035,  249, 1039,  265
5212,  891,  890, 1562, 1585
5213, 1103,  247, 1206,  231
5214, 1484,  866,  897,  896
5215, 1021, 1570, 1122, 1597
5216, 1579, 1298, 1300, 1581
5217,  960, 1256, 1298, 1533
5218, 1614,  868,  899,  898
5219, 1298, 1300, 1581, 1256
5220, 1298,  212,  211, 1299
5221, 1464, 1542,  567, 1551
5222, 1551,  598,  597,  567
5223, 1048,  201, 1147, 1150
5224, 1550, 1463,  150, 1321
5225, 1298, 1300,  228,  212
5226, 1330, 1328, 1331, 1327
5227, 1582,  273,  256,  257
5228, 1552,  598,  567,  568
5229, 1243, 1262, 1244, 1584
5230, 1597, 1551, 1550, 1617
5231, 1586, 1047, 1045, 1204
5232, 1328,  930, 1329,  931
5233, 1542, 1463, 1203, 1123
5234, 1328, 1331,  397,  403
5235, 1114,  214, 1209, 1206
5236, 1230,  394,  393,  412
5237, 1328, 1331,  394, 1230
5238, 1319,  569,  570,  600
5239,  961,  933, 1229,  902
5240, 1329,  899,  929,  898
5241, 1148,  347,  331, 1502
5242, 1295,  694, 1580,  695
5243, 1307,  570,  600, 1319
5244, 1614, 1329,  868, 1502
5245, 1571, 1251, 1253, 1345
5246, 1306, 1305,  149, 1321
5247, 1571, 1263, 1233, 1238
5248, 1445,  661,  631,  662
5249, 1597, 1570, 1122, 1551
5250, 1252, 1571, 1253, 1573
5251, 1234, 1559, 1571, 1238
5252, 1294, 1209,  214,  198
5253, 1446,  630,  600,  631
5254, 1304,  166, 1449,  182
5255, 1029,  578,  609,  608
5256, 1233,  880,  879,  849
5257, 1425, 1424,  963, 1427
5258, 1293,  694,  693,  663
5259, 1263, 1233, 1238, 1239
5260, 1029, 1478,  577, 1026
5261,  911, 1073, 1571, 1345
5262, 1199,  112, 1527,   96
5263, 1472, 1620, 1574, 1475
5264, 1143,  160,  974,  161
5265, 1125, 1167, 1169,  613
5266, 1229,  932,  412,  393
5267, 1303, 1311, 1310, 1308
5268, 1029,  973,  972, 1140
5269, 1462, 1465, 1319,  538
5270, 1396,  195,  179,  196
5271, 1336,  605,  604,  574
5272,  973,  581,  612,  611
5273, 1388, 1311,  635,  634
5274, 1125, 1168, 1172, 1171
5275, 1024,  608, 1031,  607
5276, 1394, 1222,  606,  605
5277, 1336,  574,  604,  573
5278, 1141,  193, 1437,  192
5279, 1029, 1140,  609,  610
5280,  163, 1396,  180, 1598
5281, 1139, 1140,  641,  640
5282,  575,  576, 1222,  606
5283,  604,  635, 1394, 1311
5284, 1024,  608, 1029, 1031
5285, 1492,  751, 1269,  782
5286, 1000,  638,  668,  637
5287, 1492, 1035, 1102, 1273
5288, 1033,  748,  717,  718
5289, 1093,  779,  749,  780
5290, 1416, 1086, 1489,  774
5291, 1031,  639,  638,  608
5292, 1219,  576,  575,  545
5293, 1042, 1045,  217,  216
5294, 1492, 1035, 1273, 1105
5295, 1097,  719, 1106,  720
5296, 1460, 1163,  189,  205
5297, 1567, 1223,  178, 1142
5298, 1329,  930,  899,  900
5299, 1478, 1479, 1026, 1480
5300, 1177,  706,  675,  676
5301, 1353,  708,  677,  647
5302, 1353,  647,  678,  708
5303, 1011, 1399, 1408, 1401
5304, 1366,  736,  705,  706
5305, 1436, 1566,  672,  703
5306, 1029, 1413,  972,  971
5307, 1143, 1142,  177,  161
5308, 1140,  640,  609,  610
5309, 1436, 1566, 1437, 1438
5310,  930,   61,   60,  397
5311, 1008,  737,  706,  707
5312, 1144, 1120, 1160, 1467
5313, 1593,  170,  187,  186
5314, 1179,  675,  644,  645
5315, 1365, 1443, 1566, 1565
5316, 1349, 1023,  998, 1069
5317, 1622, 1172, 1519,  143
5318,  622, 1594, 1621, 1145
5319, 1411, 1146, 1048, 1022
5320, 1145,  622,  652,  621
5321, 1125, 1167, 1138, 1168
5322, 1140,  642,  641,  611
5323, 1120, 1150,  202,  218
5324,  623, 1145, 1594,  622
5325,  976, 1201,  978,  977
5326, 1176, 1175,  976, 1201
5327, 1171,  583,  614,  613
5328, 1138, 1143, 1141,  176
5329, 1175,  104,  979, 1201
5330, 1398,  222,  207,  223
5331,  975,  471, 1493,  456
5332, 1313,  825,  824,  794
5333, 1171,  614,  583,  584
5334, 1173, 1030,  430, 1461
5335, 1353, 1389,  708,  678
5336,  191, 1135, 1136,  175
5337, 1200,  504,  976,  505
5338, 1176,  474, 1030,  505
5339, 1389,  678,  709,  739
5340,  474,  976, 1176, 1173
5341, 1392, 1163, 1318,  189
5342, 1357, 1362,  240, 1443
5343,  977, 1521,  979,  980
5344,  977,  976, 1200,  503
5345,  230,  246, 1107, 1113
5346, 1459,  586,  616,  585
5347, 1459,  616,  646,  585
5348, 1060,  681,  712,  711
5349, 1254,  963, 1424, 1427
5350,  966, 1271, 1422,  278
5351, 1156, 1317, 1162,  650
5352,  676, 1127,  675, 1177
5353,  817, 1423,  787, 1469
5354,  652,  651, 1467,  621
5355, 1254, 1424, 1544, 1427
5356, 1111,  246, 1112,  262
5357, 1160,  220,  203,  204
5358, 1610,  732,  733,  763
5359, 1161,  204, 1160,  203
5360, 1156, 1161, 1162, 1317
5361, 1271, 1625, 1422,  294
5362, 1424,  965,  756,  787
5363, 1626, 1424,  965,  756
5364,  966, 1271, 1469, 1422
5365,  651, 1467,  621, 1317
5366, 1192,  742,  772,  741
5367, 1324, 1335, 1320,  541
5368, 1152, 1094, 1039, 1066
5369, 1621,  590,  620,  589
5370,  970, 1442,  117,  101
5371,  509, 1248,  967, 1326
5372, 1065, 1120, 1160,  219
5373,  479, 1246,  510,  480
5374, 1324, 1339, 1326, 1320
5375, 1249,  436,  438,  435
5376, 1146, 1050, 1048, 1022
5377, 1324, 1221, 1335,  542
5378, 1009, 1012,  767,  768
5379, 1593, 1144, 1161, 1317
5380, 1119,  715,  714,  684
5381,  988,  654,  685,  684
5382, 1183,  514,  483,  484
5383, 1287,  960, 1298, 1533
5384, 1010, 1362,  256,  240
5385, 1134, 1609, 1132,  796
5386, 1043,  233, 1042,  217
5387, 1071, 1048, 1146, 1050
5388, 1453,  258, 1613,  242
5389, 1120,  219,  202,  203
5390, 1150, 1117, 1048, 1154
5391, 1364, 1443, 1565, 1613
5392, 1436, 1178,  705,  674
5393, 1595,  624,  623,  593
5394, 1363,  765, 1364,  766
5395, 1046,  627,  658,  657
5396, 1362, 1613,  257,  241
5397, 1451,  717,  716,  686
5398, 1362,  241, 1443, 1613
5399, 1133, 1019, 1453, 1018
5400, 1154,  656,  657,  687
5401, 1038, 1451,  717,  716
5402, 1133, 1020, 1019, 1018
5403, 1292, 1448, 1287,  730
5404,  258, 1611,  274, 1019
5405, 1170, 1255,  259,  243
5406, 1021,  626, 1046, 1022
5407, 1013, 1019, 1018, 1548
5408, 1109,  722,  691,  692
5409, 1448, 1170, 1255, 1019
5410, 1255, 1287, 1448, 1546
5411, 1047,  184,  200,  183
5412, 1021,  628,  627,  597
5413, 1207, 1445,  661,  660
5414, 1047, 1204,  199,  200
5415, 1337, 1395,  163, 1396
5416, 1104,  231, 1206,  215
5417, 1335, 1221, 1323,  148
5418, 1206,  231,  214,  215
5419, 1206,  247,  246,  230
5420, 1206,  214,  231,  230
5421, 1446,  599,  630,  629
5422,  762, 1292, 1217,  731
5423, 1337, 1598,  163,  164
5424, 1220, 1222, 1337, 1221
5425, 1300,  228,  212,  229
5426, 1445,  660, 1208,  629
5427, 1293,  662,  693,  692
5428, 1523, 1528, 1130, 1182
5429, 1408,  270,  253,  254
5430, 1580,  664,  695,  694
5431, 1579, 1581,  695,  696
5432, 1174, 1407,  710,  709
5433, 1407,  679, 1441,  710
5434, 1388,  633, 1311,  634
5435, 1388,  665,  634,  635
5436, 1311,  633,  602,  603
5437, 1295,  695,  726,  725
5438, 1190, 1193, 1409,  269
5439, 1447, 1308,  664,  633
5440, 1404,  771,  740,  741
5441, 1408,  270,  269,  253
5442, 1361, 1365, 1366, 1360
5443, 1550, 1463, 1123,  151
5444, 1115,  725,  724,  694
5445, 1319,  599,  568,  569
5446, 1361, 1181, 1455,  207
5447, 1299,  212,  211,  195
5448, 1136,  175, 1138,  176
5449, 1299, 1387, 1388, 1301
5450, 1410,  667,  666,  636
5451, 1388, 1410, 1598, 1396
5452, 1388,  664,  634,  665
5453, 1439,  209, 1443,  208
5454, 1388, 1299, 1410, 1396
5455, 1139, 1566, 1003,  640
5456, 1360, 1365,  704,  735
5457, 1436, 1365, 1439, 1566
5458, 1003, 1223, 1395, 1028
5459, 1000,  667, 1410,  636
5460, 1310, 1388, 1308, 1311
5461,  606, 1024, 1222, 1028
5462, 1413,  972,  974,  145
5463, 1024, 1029, 1025, 1031
5464,  579,  610,  973, 1029
5465, 1029, 1413, 1478, 1480
5466, 1002, 1227, 1299, 1001
5467,  608,  577, 1024, 1029
5468, 1029, 1413,  971,  579
5469, 1516,  524, 1517,  555
5470, 1292,  761,  730,  731
5471, 1392, 1314, 1166,  617
5472, 1028,  638,  637,  607
5473, 1215, 1001, 1218,  959
5474, 1301,  697,  667,  698
5475, 1459,  585, 1509,  586
5476, 1140,  611,  641,  610
5477,  586, 1458, 1511, 1509
5478, 1171,  584, 1509,  615
5479, 1218,  699,  668,  669
5480, 1078, 1252,  343,  359
5481, 1077,  937,  906,  907
5482, 1077,  411,  962,  937
5483, 1234,  878, 1571, 1573
5484, 1139, 1031,  609,  640
5485, 1368, 1235, 1429, 1078
5486,  971,  579,  973, 1029
5487, 1003,  671,  670,  640
5488, 1139, 1143,  177, 1141
5489, 1141, 1437, 1439,  192
5490, 1251, 1082,  358, 1252
5491, 1573, 1253,  908,  909
5492, 1081, 1368, 1573,  908
5493, 1455,  208,  207,  191
5494, 1167,  613,  643,  612
5495, 1368,  907,  876,  877
5496, 1080, 1082, 1251, 1252
5497,  404,  940, 1080,  383
5498, 1141,  176,  193,  192
5499, 1080,  939,   51,  386
5500, 1167,  611, 1140,  973
5501, 1167,  643,  642,  612
5502, 1081,  938,  907,  908
5503, 1428, 1077, 1368, 1078
5504,  386, 1080,  939,  938
5505, 1462,  537, 1348,  538
5506, 1124, 1167, 1125,  613
5507, 1128,  675,  674,  644
5508, 1391, 1135, 1179, 1180
5509, 1322, 1326, 1466, 1442
5510, 1124,  613, 1126,  644
5511, 1246, 1247,  970, 1325
5512,  968,  476,  430,  451
5513, 1458, 1459, 1509,  586
5514, 1483, 1539, 1486,  349
5515, 1171, 1169,  613, 1125
5516, 1179,  676,  645,  646
5517, 1176,  103, 1175,  119
5518,  979, 1201,  104,  120
5519, 1353, 1400, 1180,  708
5520,  975,  977,  471,  472
5521, 1018,  762,  792,  761
5522, 1406,  711,  741,  710
5523, 1177, 1178,  706, 1366
5524, 1347, 1203,  120,  136
5525, 1176, 1200, 1201,  976
5526,  977,  989,  980,  502
5527, 1350,  617,  647,  616
5528, 1441,  711,  710,  680
5529, 1251, 1253, 1345,  383
5530, 1452, 1409, 1406, 1193
5531, 1571, 1573,  878,  909
5532, 1352, 1353,  677,  647
5533, 1058, 1062, 1434,  252
5534, 1559, 1258, 1075, 1074
5535, 1571, 1345,  910,  911
5536, 1027,  147,  163,  146
5537, 1571, 1345, 1253,  910
5538, 1156,  619,  649,  618
5539, 1159, 1166,  649,  648
5540, 1166,  649,  648,  618
5541, 1571,  910,  879,  880
5542, 1088,  284,  300,  283
5543, 1253,  940,  909,  910
5544, 1571,  880,  911,  910
5545, 1072, 1345,  942,  410
5546, 1406,  743,  742,  712
5547, 1345,  410,  383,  941
5548, 1144, 1161,  203,  187
5549, 1072,  943,  942,  912
5550, 1390, 1398,  238,  222
5551, 1072, 1559, 1074, 1073
5552, 1094, 1039, 1066,  266
5553, 1072, 1075,  382,  380
5554, 1443, 1216, 1565, 1613
5555,  311, 1096, 1558, 1555
5556,  682,  683, 1162, 1061
5557, 1357,  224, 1443,  240
5558, 1365, 1439, 1566, 1443
5559, 1437,  208,  192,  209
5560, 1144, 1150, 1147,  202
5561, 1032,  250, 1037, 1039
5562, 1154,  687,  657,  688
5563, 1443,  209, 1216,  225
5564, 1360,  705,  736,  735
5565,  703,  734, 1365, 1565
5566, 1046,  657,  626,  627
5567, 1411,  625,  656,  655
5568, 1038,  685,  716,  715
5569, 1360, 1008,  736, 1366
5570, 1568, 1194, 1569, 1188
5571, 1102,  281,  280,  264
5572,  485,  450,  440, 1195
5573,  971,  579,  548,  549
5574, 1034, 1154,  688,  687
5575, 1198,  488,  487,  443
5576, 1189, 1198,  486,  444
5577, 1189,  486, 1195,  450
5578, 1198, 1477,  518,  994
5579, 1106,  720,  719,  689
5580, 1099,  280, 1102,  281
5581, 1155,  778, 1265,  777
5582, 1569,  516, 1194,  517
5583, 1020,  274,  290,  273
5584, 1242,  855, 1241,  856
5585, 1440, 1034,  718,  687
5586, 1499,  823, 1014,  824
5587, 1104, 1042,  232,  216
5588, 1486,  333,  350,  349
5589, 1499,  824, 1313,  855
5590, 1586,  690,  689,  659
5591, 1108,  660,  691,  690
5592, 1021, 1570, 1349, 1122
5593, 1097,  720,  751,  750
5594, 1311, 1303, 1309, 1308
5595, 1107,  230, 1114, 1206
5596, 1369, 1148, 1372, 1374
5597, 1311, 1336,  604,  603
5598, 1293,  692,  661,  662
5599, 1104,  215,  216,  232
5600, 1311,  633, 1308,  602
5601, 1106, 1274,  720,  721
5602, 1084,  868, 1092, 1502
5603, 1444,  198, 1294,  197
5604, 1112,  247,  263,  246
5605, 1310, 1388, 1311, 1598
5606, 1311,  634,  633,  603
5607,  571,  570, 1309, 1320
5608, 1445, 1208, 1449, 1617
5609, 1326, 1248,  510,  509
5610, 1109, 1110,  691,  722
5611, 1319, 1550, 1307, 1305
5612, 1312, 1337,  148,  164
5613, 1220,  148, 1323, 1221
5614, 1469,  785,  786,  816
5615, 1113,  229, 1300,  213
5616, 1580,  665,  696,  695
5617, 1326,  541,  540,  510
5618, 1619, 1541,  313, 1540
5619, 1090, 1502, 1087,  315
5620, 1148,  346, 1491, 1373
5621, 1580, 1447,  664,  663
5622, 1580, 1447, 1308,  664
5623, 1388,  635,  666,  665
5624, 1430, 1491,  345, 1373
5625,  261,  963,  964, 1111
5626, 1430, 1491, 1375, 1232
5627, 1293,  663, 1295,  694
5628, 1579,  727,  697, 1533
5629, 1491,  345, 1373,  346
5630, 1289,  698, 1001,  699
5631, 1619, 1541, 1540, 1370
5632, 1394,  604, 1336,  605
5633, 1289,  699,  730,  729
5634, 1254, 1255,  260, 1427
5635, 1225, 1565, 1216, 1218
5636, 1619,  313, 1541,  329
5637, 1394, 1410, 1598, 1311
5638, 1139, 1003, 1567, 1142
5639, 1567, 1142,  178,  177
5640, 1218,  670,  701,  700
5641, 1024, 1025, 1027, 1028
5642,  999,  670, 1218,  669
5643, 1393, 1396,  195,  179
5644, 1395,  163, 1396,  179
5645,  225, 1613,  242, 1216
5646, 1225,  701,  671,  702
5647, 1329,  868,  869,  899
5648, 1183,  484, 1188,  515
5649, 1567, 1224, 1437,  193
5650, 1216, 1613,  242, 1217
5651, 1216, 1218, 1565, 1217
5652, 1332, 1502,  347, 1148
5653, 1543, 1549, 1427, 1545
5654, 1139, 1437, 1566, 1438
5655, 1513,  973,  581, 1577
5656, 1566,  641,  672,  671
5657, 1224, 1216, 1443,  209
5658, 1218,  700,  669,  670
5659, 1225, 1218,  701, 1565
5660, 1520,  500, 1380,  499
5661, 1376,  499, 1380,  530
5662, 1546, 1548,  791,  760
5663,  499, 1378, 1296,  468
5664, 1379,  498,  529,  528
5665, 1448, 1548,  791,  792
5666, 1378, 1578,  418, 1212
5667, 1217,  242,  226,  959
5668, 1436,  704,  703,  673
5669, 1148,  330,  314,  331
5670, 1536, 1213, 1537, 1379
5671, 1424, 1254, 1626,  963
5672,  973,  974, 1140, 1167
5673, 1587, 1626,  755,  724
5674, 1350, 1166, 1159,  648
5675, 1436, 1365,  703,  704
5676, 1295, 1113, 1588, 1581
5677, 1544, 1533, 1588, 1256
5678, 1128,  644,  674,  643
5679, 1178,  706,  705,  675
5680, 1136, 1455,  192, 1141
5681,  756, 1424,  757, 1588
5682, 1127,  644, 1179,  675
5683, 1127, 1136, 1455,  191
5684, 1421, 1422, 1423, 1529
5685, 1012,  799,  798,  768
5686, 1009,  736, 1008,  737
5687, 1254, 1256,  245,  244
5688, 1254, 1113, 1111,  245
5689, 1360, 1009, 1008, 1010
5690, 1113, 1588, 1581, 1256
5691, 1179,  676,  646,  677
5692, 1124,  644, 1167,  613
5693, 1007,  271,  286,  270
5694, 1507, 1407, 1401, 1389
5695, 1157, 1159, 1441, 1158
5696, 1180,  707,  676,  677
5697, 1545,  790,  821,  820
5698, 1389,  739,  708,  678
5699,  767, 1363, 1360,  766
5700, 1539, 1486,  349,  333
5701, 1588, 1533,  727, 1581
5702, 1254, 1255,  244,  260
5703, 1390, 1302,  221,  237
5704, 1159,  680,  679,  649
5705, 1228,  412,  390,  392
5706, 1386,  955,  401,  407
5707, 1230,  363,  394,  362
5708, 1351,  679,  678,  648
5709, 1062,  253, 1409,  252
5710, 1058, 1060, 1059, 1433
5711, 1490, 1329, 1502,  869
5712, 1374,  961,  902, 1375
5713, 1430,  329, 1373,  345
5714, 1539, 1602, 1486,  333
5715, 1279,  349, 1486,  350
5716, 1192,  773,  772,  742
5717, 1317,  650,  619,  620
5718, 1545,  789,  820,  819
5719,  682,  683, 1061,  713
5720, 1087,  316,  315,  299
5721, 1433,  714,  744,  713
5722, 1560,  350, 1486,  334
5723, 1602,  332,  316,  333
5724, 1528, 1553, 1049, 1130
5725, 1555,  813, 1556, 1100
5726, 1118,  653,  684,  683
5727, 1546,  760,  790,  759
5728, 1162,  682,  651,  652
5729, 1059,  714,  713,  683
5730, 1061,  713,  712,  682
5731, 1612,  843,  873,  842
5732, 1558, 1619, 1556, 1612
5733, 1063,  235,  218,  219
5734, 1039, 1095, 1032, 1035
5735, 1038, 1451,  716,  685
5736, 1164,  139, 1536,  123
5737, 1612, 1371,  842,  873
5738, 1431,  962,  904,  905
5739,  374,  373, 1355,  947
5740, 1494, 1354, 1435,  917
5741, 1151,  746,  745,  715
5742,  398, 1327,  364,   33
5743,  892, 1583, 1600, 1563
5744, 1280,  350,  335,  351
5745, 1485,  864, 1616,  865
5746, 1043,  218, 1063,  234
5747,  988, 1117, 1150, 1451
5748,  986,  402,  400,  401
5749, 1034,  718,  687,  688
5750, 1071, 1146, 1048, 1147
5751, 1276,  400,  402,  399
5752, 1154,  655,  656,  686
5753, 1039,  265,  249,  266
5754, 1117,  655,  686,  685
5755, 1451,  716,  685,  686
5756, 1275, 1277, 1483,  896
5757, 1275,  396,  928, 1327
5758, 1097,  750,  719,  720
5759, 1105,  263,  247,  264
5760,  211, 1002,  210, 1227
5761, 1206,  247,  230,  231
5762, 1586, 1045,  657, 1154
5763, 1033,  717, 1440,  718
5764, 1393,  194, 1223,  178
5765, 1205,  721,  720,  690
5766, 1579, 1533, 1291, 1298
5767, 1036, 1104, 1042,  232
5768, 1301, 1001, 1410, 1299
5769, 1110,  722,  721,  691
5770, 1557,  815,  814,  784
5771, 1288, 1299, 1227, 1001
5772, 1254,  244,  245,  261
5773, 1109,  722,  692,  723
5774, 1387, 1299, 1396,  196
5775,  726, 1295, 1588, 1581
5776, 1114, 1444, 1294, 1293
5777, 1586,  689,  658,  659
5778, 1107, 1206, 1112,  246
5779, 1207,  692,  691,  661
5780, 1107, 1114, 1113, 1115
5781, 1299,  195, 1396,  196
5782, 1213, 1603,  496,  497
5783, 1378, 1481, 1578, 1212
5784, 1096,  846,  815,  816
5785, 1114, 1206,  230,  214
5786, 1274,  722,  753,  752
5787,  455,  416, 1481,  417
5788, 1115,  694,  724,  693
5789, 1481,  415,  417,  416
5790,  723,  724, 1109, 1587
5791, 1219,  543,  512,  513
5792, 1211, 1213,  496,  465
5793, 1469, 1599, 1270,  785
5794, 1587,  724,  755,  754
5795, 1535,  155,  154,  138
5796, 1621, 1604, 1605, 1594
5797, 1468,  886,  885,  855
5798, 1535,  155,  138,  139
5799, 1518, 1624, 1618, 1510
5800, 1606,  528, 1381,  559
5801, 1626,  725,  755,  724
5802, 1604, 1535, 1382, 1381
5803, 1618, 1605, 1608, 1607
5804,  351,  406,  375, 1384
5805, 1386,  925,  955,  924
5806,  293, 1425,  277, 1426
5807, 1314, 1618,  588, 1510
5808, 1518,  156, 1607,  140
5809, 1518, 1624, 1607, 1618
5810,  955,  407, 1386,  954
5811, 1386,  956,  955,  925
5812,  972, 1140, 1139, 1029
5813, 1298, 1256,  244,  228
5814, 1017,  822,  823,  853
5815, 1002,  211,  194,  195
5816, 1310, 1312,  165,  164
5817, 1288, 1227,  227,  959
5818, 1394, 1337, 1222, 1336
5819, 1242,  886, 1468,  855
5820, 1243,  857, 1241, 1260
5821, 1013, 1549, 1016,  291
5822, 1393,  178,  195,  194
5823, 1223, 1000, 1028, 1003
5824, 1338,  116, 1339,  132
5825, 1331,  363,  364,   33
5826, 1002,  210, 1227, 1215
5827, 1426,  276, 1549, 1427
5828, 1053, 1052,  851,  852
5829, 1215, 1216, 1224,  210
5830, 1054,  854,  884,  853
5831, 1053,  821, 1547,  822
5832,  400,  986,    2,  365
5833, 1547, 1545,  790,  821
5834, 1547,  821,  791,  822
5835, 1215, 1218, 1217,  959
5836, 1053, 1016, 1426, 1052
5837,  794, 1018, 1313, 1133
5838, 1565,  733,  732,  702
5839,  827,  826, 1609,  796
5840, 1009, 1010, 1360, 1363
5841,  981, 1211,  984, 1575
5842, 1211, 1213, 1603,  496
5843, 1436,  703,  672,  673
5844, 1476,  124,  125,  141
5845, 1518,  157, 1511,  156
5846, 1610, 1613, 1611, 1501
5847, 1010, 1360, 1363, 1357
5848,    3,  401,  956,   35
5849, 1505, 1358,  353,  337
5850, 1365,  734,  704,  735
5851,  826, 1260, 1609, 1241
5852, 1504, 1562, 1584, 1531
5853, 1243, 1244,  889, 1584
5854, 1174,  770,  739,  709
5855, 1262, 1584, 1562, 1531
5856, 1531, 1563,  320,  336
5857, 1178,  675,  705,  674
5858, 1530, 1244, 1531, 1584
5859, 1365,  704,  734,  703
5860, 1282,  800,  830,  799
5861, 1436,  705, 1178, 1366
5862, 1530, 1596, 1358, 1531
5863, 1177,  676,  707,  706
5864, 1366,  737,  736,  706
5865, 1383,  953,  954,  405
5866, 1397, 1398, 1361,  223
5867, 1194,  487,  518,  517
5868, 1180,  707,  677,  708
5869, 1198,  518, 1194,  487
5870, 1513,  549, 1477,  550
5871, 1008, 1366,  737,  736
5872, 1131,  318,  302,  303
5873, 1006,  801, 1282,  800
5874,  992,  489,  460,   93
5875, 1513, 1515, 1413,  971
5876, 1174, 1401,  709,  739
5877, 1478,  516,  546,  515
5878, 1413, 1414, 1456,  129
5879, 1569,  547,  517,  548
5880,  678, 1407, 1389,  709
5881, 1405, 1007,  286,  270
5882, 1569,  517,  547,  516
5883, 1174,  741,  740,  710
5884,  252, 1409, 1452,  268
5885, 1370,  842, 1371,  841
5886,  961, 1375,  904,  903
5887, 1374,  870,  871,  901
5888, 1390, 1398, 1181, 1389
5889, 1369,  871, 1374,  870
5890, 1059, 1038,  715, 1119
5891, 1491, 1231,  361,  362
5892, 1370, 1371,  840,  841
5893, 1369,  840, 1371,  871
5894, 1523, 1404, 1282, 1283
5895, 1192,  774,  773,  743
5896, 1369, 1148, 1149, 1372
5897, 1190, 1405, 1193,  269
5898, 1386,  955,  956,  401
5899, 1129, 1524, 1182, 1583
5900, 1088, 1089,  300, 1417
5901, 1409,  269,  252,  253
5902, 1190, 1406, 1409, 1193
5903, 1191,  803,  773,  804
5904, 1488, 1130,  317,  301
5905, 1614,  898, 1329, 1327
5906, 1089, 1601, 1488, 1085
5907, 1059, 1433,  713,  714
5908, 1147,  185,  186,  202
5909, 1036, 1035, 1105,  248
5910, 1086,  776,  807,  806
5911, 1151,  745,  714,  715
5912, 1049,  302, 1130,  301
5913, 1084, 1484, 1614, 1539
5914, 1489,  805,  804,  774
5915, 1432, 1415, 1416, 1153
5916,  715, 1038,  685,  684
5917, 1095,  747,  716,  717
5918, 1619, 1556, 1370, 1623
5919, 1489,  805, 1086, 1085
5920, 1487,  284, 1193,  285
5921, 1032, 1043, 1037,  234
5922, 1093, 1039, 1094, 1035
5923, 1027,  163, 1025,  146
5924, 1452,  743, 1060, 1433
5925, 1061,  712,  681,  682
5926, 1119, 1065, 1061, 1063
5927, 1033,  749,  748,  718
5928, 1264,  820,  851,  850
5929, 1032, 1039,  249,  250
5930, 1432,  251, 1434,  267
5931, 1034,  719,  718,  688
5932, 1108, 1204, 1104, 1206
5933, 1453,  258, 1611, 1613
5934, 1499,  854, 1017,  823
5935, 1092,  869,  868,  838
5936, 1590, 1100,  811,  780
5937, 1097,  750, 1101,  749
5938,  761, 1448, 1018, 1292
5939, 1097,  720, 1106,  751
5940, 1019, 1548, 1448, 1018
5941, 1459,  615, 1126, 1171
5942, 1106,  689,  719,  688
5943, 1451, 1042, 1043, 1032
5944, 1097,  749,  718,  719
5945, 1101,  780,  749,  750
5946, 1315, 1511, 1318,  172
5947, 1156,  650, 1159,  649
5948, 1157, 1162,  681,  650
5949, 1589, 1540,  297,  298
5950, 1061, 1157, 1441, 1064
5951, 1060,  712, 1433,  743
5952,  751, 1492, 1101,  782
5953, 1110,  691,  721,  690
5954, 1262, 1563, 1600,  320
5955, 1407,  710, 1441,  711
5956, 1441, 1061, 1060,  681
5957, 1103, 1274, 1106, 1110
5958, 1557,  783,  784,  814
5959, 1583,  894,  893,  863
5960, 1368,  876,  906,  875
5961,  724, 1109, 1587, 1115
5962, 1112,  246, 1206,  247
5963, 1428, 1077,  962,  906
5964, 1272, 1587,  965, 1270
5965, 1082,  360, 1079,  387
5966, 1109,  693,  723,  692
5967,  962,  936,  411,  388
5968, 1239,  309,  310,  326
5969,  787, 1469,  786,  817
5970,  935,  962,  957,  388
5971, 1254, 1113, 1115, 1111
5972,  961,  904, 1375, 1232
5973,  961,  934,  903,  904
5974,  905,  906, 1431,  962
5975, 1295,  725, 1115,  694
5976, 1115, 1626,  724,  725
5977, 1422,  310,  293,  294
5978, 1579,  666,  697,  696
5979, 1077,  962,  906,  937
5980,  957, 1228,  392, 1231
5981,  261,  277, 1427,  260
5982, 1303,  570, 1309,  601
5983, 1335, 1320,  541,  572
5984, 1312, 1336, 1337, 1598
5985, 1337, 1222, 1336, 1221
5986, 1581,  726,  696,  727
5987, 1298, 1300, 1256,  228
5988, 1614,  867,  868,  898
5989, 1588,  756,  725,  726
5990, 1031, 1003, 1395, 1028
5991, 1310, 1396, 1598,  180
5992, 1499,  824,  855,  854
5993, 1394, 1410, 1396, 1598
5994, 1394, 1396, 1337, 1598
5995, 1052,  852,  883,  882
5996, 1303, 1312, 1311, 1309
5997, 1289, 1287, 1288, 1291
5998, 1304, 1303,  181, 1308
5999, 1614,  897,  867,  898
6000, 1394,  604, 1311, 1336
6001,  701,  731, 1217,  700
6002, 1309, 1336,  603,  572
6003, 1303,  165, 1304,  181
6004,   17,  107,  108,  415
6005, 1014,  793,  824,  823
6006, 1468, 1499,  855,  854
6007, 1294,  213, 1387,  197
6008, 1376, 1380, 1534, 1278
6009, 1394, 1311, 1598, 1336
6010,  989, 1380,  501,  532
6011, 1292,  761,  731,  762
6012, 1295, 1581, 1580, 1300
6013, 1289, 1290,  959, 1292
6014, 1579, 1533, 1298, 1581
6015, 1113, 1300, 1256, 1581
6016, 1362,  257,  256,  240
6017, 1295, 1300, 1113, 1581
6018, 1298, 1256, 1581, 1533
6019, 1289, 1291, 1001,  698
6020, 1364,  735,  766,  765
6021, 1567, 1003, 1223, 1142
6022, 1290, 1218, 1001,  959
6023, 1218, 1001,  668,  699
6024,  999, 1218, 1001,  668
6025, 1241,  826, 1260,  857
6026, 1369, 1375, 1371, 1373
6027, 1436, 1365, 1566,  703
6028, 1592,  766,  796,  765
6029, 1225, 1566, 1567, 1224
6030,  999,  669,  639,  670
6031, 1052,  883, 1057,  882
6032, 1129, 1583, 1560, 1563
6033, 1201, 1521, 1347,  120
6034, 1175,  429,  427,  426
6035,  473,  976,  474,  427
6036,  976,  503,  473,  504
6037,  457,  430, 1173,  475
6038, 1219,  545, 1026,  576
6039, 1405,  285,  269,  286
6040, 1479,  130, 1027,  146
6041, 1222,  574,  544,  575
6042, 1011,  769,  738,  739
6043, 1415, 1487,  284, 1193
6044, 1008,  738,  737,  707
6045,  861, 1526, 1524,  830
6046, 1600,  892, 1585,  861
6047, 1090,  331, 1502,  315
6048, 1222,  543,  544,  574
6049, 1523,  771,  802,  832
6050, 1400,  738,  708,  739
6051, 1009, 1363, 1582, 1010
6052, 1136, 1455,  191,  192
6053, 1219,  543, 1222, 1221
6054, 1283,  302, 1049,  286
6055, 1129,  318,  319,  334
6056, 1336, 1221, 1222,  574
6057, 1402, 1040, 1185, 1479
6058, 1174,  740,  770,  709
6059, 1624, 1603,  527,  526
6060, 1507,  238, 1398,  254
6061, 1404,  801,  770,  740
6062, 1489, 1488, 1085, 1417
6063, 1518, 1607, 1164,  140
6064, 1624,  558, 1606, 1608
6065, 1406,  712,  742,  711
6066, 1314,  587, 1510,  588
6067, 1562,  923,  922,  892
6068, 1555, 1099,  296, 1572
6069, 1085,  804,  805,  835
6070, 1059, 1060,  713, 1433
6071, 1161, 1315,  188,  187
6072, 1056, 1495, 1057, 1342
6073, 1346,  373,  377,  409
6074, 1416,  745,  775,  744
6075, 1155,  776,  745,  746
6076, 1191,  803,  772,  773
6077, 1416,  775,  774,  744
6078, 1257, 1258, 1057, 1495
6079, 1344, 1354, 1356, 1358
6080, 1190, 1192, 1191,  772
6081, 1342, 1495, 1346, 1435
6082, 1051, 1016, 1420,  307
6083, 1073, 1072, 1345,  911
6084, 1119,  684,  714,  683
6085, 1091,  299, 1087, 1149
6086, 1094,  266, 1153,  282
6087,  409,  945, 1341, 1346
6088, 1392, 1166, 1314, 1318
6089, 1151,  716,  746,  715
6090, 1152, 1095, 1098,  747
6091, 1621,  621, 1145, 1317
6092, 1066, 1039,  250,  266
6093, 1513,  971,  548,  549
6094, 1564,  994, 1527, 1514
6095, 1589,  298,  281,  282
6096, 1623,  296,  313,  312
6097,  548, 1413, 1513, 1569
6098,  974, 1515,  973,  971
6099, 1574,  111, 1527,  112
6100, 1512,  157, 1471,  158
6101, 1101,  781,  780,  750
6102, 1032, 1440, 1451, 1042
6103, 1098,  748,  778,  747
6104, 1095,  748,  747,  717
6105, 1572,  295,  279,  296
6106, 1622, 1168,  143,  144
6107, 1556,  842,  811,  812
6108, 1490, 1329,  869,  900
6109, 1269, 1274, 1270,  753
6110, 1555, 1100, 1557,  813
6111,  974, 1168,  144,  160
6112, 1413,  974, 1515,  144
6113, 1558, 1096, 1237, 1554
6114, 1273,  263,  280,  279
6115, 1101, 1098,  780, 1100
6116, 1269,  782,  751,  752
6117, 1021,  628, 1046,  627
6118, 1551, 1617,  598, 1552
6119, 1550,  167, 1449,  166
6120, 1035,  264, 1105,  248
6121, 1268, 1572,  295,  279
6122, 1446,  599, 1552, 1307
6123, 1021, 1046,  628, 1208
6124, 1042, 1586, 1154, 1045
6125, 1204,  199,  216,  215
6126, 1112, 1274, 1587, 1270
6127, 1356,  338, 1576,  354
6128, 1274,  752,  751,  721
6129, 1440, 1038, 1451,  717
6130, 1108, 1586, 1205, 1204
6131,  754, 1587, 1270,  755
6132, 1036, 1097, 1035, 1034
6133, 1204,  216,  199,  200
6134, 1411, 1146, 1117, 1048
6135, 1048, 1045,  217, 1154
6136, 1597,  183, 1450, 1449
6137, 1596,  338,  321,  322
6138, 1042, 1045, 1154,  217
6139, 1587,  754,  723,  724
6140, 1226, 1016, 1426,  292
6141, 1154, 1048, 1150,  217
6142, 1263,  880, 1233,  849
6143, 1050, 1595, 1023,  625
6144, 1226, 1426,  293,  292
6145, 1539,  348,  332,  349
6146, 1044, 1597, 1021, 1122
6147, 1044, 1597, 1047, 1046
6148, 1458, 1512, 1172,  174
6149, 1354, 1435,  917,  948
6150, 1254, 1256, 1113,  245
6151, 1111,  262,  261,  245
6152, 1236,  327,  310,  311
6153, 1624,  557,  556,  526
6154, 1518,  157,  140,  141
6155, 1588, 1424,  757, 1544
6156, 1424,  788,  819,  818
6157, 1512,  158, 1172,  174
6158, 1516,  524,  554,  523
6159, 1473, 1476, 1575,  984
6160, 1561, 1583, 1182,  894
6161, 1546,  790,  760,  791
6162, 1561,  894,  925,  924
6163, 1510, 1509, 1511, 1518
6164, 1222, 1219, 1027, 1026
6165, 1257, 1057, 1073, 1418
6166, 1473,  523,  492,  493
6167, 1241,  826,  857,  856
6168, 1476, 1516, 1518, 1471
6169, 1146, 1048, 1147, 1117
6170,  684, 1038,  685,  988
6171, 1363, 1362, 1501, 1582
6172, 1289, 1287,  729,  730
6173,  760, 1287,  730,  729
6174,  591,  622,  592, 1594
6175,  826, 1132,  795,  825
6176,  622,  623, 1145,  653
6177, 1593, 1621, 1605, 1594
6178, 1413, 1568, 1456, 1414
6179, 1063,  218, 1120,  219
6180,    1,  453,  110,  447
6181,  453,  110,  447, 1412
6182,  983,  997,  491,  522
6183,  996, 1474,  983, 1412
6184, 1611,  274, 1019, 1020
6185,  992,  996,  995,  997
6186,  996,  997, 1474,  995
6187,  996, 1412,  447,  995
6188,  983,  461,  448,  454
6189,  996,  983,  997,  491
6190, 1240, 1242,  887,  888
6191, 1591,  289,  288,  272
6192, 1314, 1315, 1511, 1318
6193, 1582, 1362,  257,  256
6194, 1024,  576,  577,  607
6195, 1480,  162,  145,  146
6196, 1019,  258,  259,  275
6197, 1144, 1161, 1467, 1160
6198, 1162, 1317,  651,  650
6199, 1058, 1433, 1434, 1060
6200, 1591, 1582,  273,  272
6201, 1162,  681,  651,  682
6202, 1297, 1522, 1493,  420
6203, 1286,  256,  272,  255
6204,  953,  376,   37,  405
6205, 1380, 1378, 1296,  499
6206, 1609, 1260,  827,  828
6207, 1592,  767,  797,  766
6208, 1262, 1525, 1526, 1615
6209, 1285, 1286, 1582,  272
6210, 1071, 1070,  998, 1595
6211, 1347,  137, 1068,  153
6212,  535,  534, 1542, 1200
6213, 1201,  978,  977,  979
6214, 1067, 1278,  532,  563
6215, 1520,  469,  470,  500
6216,  769,  768, 1004,  738
6217, 1005, 1285, 1012, 1281
6218, 1006,  800,  769,  770
6219, 1534,  121,  122,  138
6220, 1552,  568,  599,  598
6221, 1009,  767,  736,  737
6222, 1380, 1278, 1067, 1534
6223, 1089,  316, 1087,  300
6224, 1530, 1531, 1504, 1584
6225, 1405, 1283, 1049,  286
6226, 1404, 1282, 1006,  801
6227, 1404, 1174, 1006, 1007
6228, 1092,  869, 1372, 1502
6229, 1012,  799, 1281,  798
6230, 1092,  838, 1372,  869
6231, 1092, 1091, 1372,  838
6232, 1062, 1060, 1406, 1407
6233, 1087, 1149,  299,  315
6234, 1600,  304,  320,  303
6235, 1452, 1406, 1192, 1193
6236, 1084,  837,  867,  836
6237, 1424, 1626, 1588,  756
6238, 1602, 1488, 1601, 1130
6239, 1484,  896,  865,  866
6240, 1115, 1254, 1626, 1588
6241,  725,  726, 1295, 1588
6242, 1408, 1405,  270, 1007
6243, 1546,  789,  759,  790
6244, 1544, 1254, 1588, 1424
6245, 1579, 1301, 1300, 1298
6246, 1073,  882,  913,  912
6247, 1113, 1256,  229,  245
6248, 1192,  743,  773,  742
6249, 1432, 1153, 1066,  267
6250, 1300,  229, 1256,  228
6251,  696, 1579,  727,  697
6252,  228,  212,  211, 1298
6253, 1372,  870,  869,  839
6254, 1086,  806,  805,  775
6255, 1084,  835, 1085,  836
6256, 1306, 1312, 1309, 1323
6257, 1588, 1256, 1533, 1581
6258, 1369, 1372, 1149, 1266
6259,  759, 1546,  728,  758
6260, 1415, 1153,  267,  283
6261, 1589, 1267,  298,  282
6262,  952,  376,  367,   38
6263, 1265,  778,  809,  808
6264, 1265,  808,  807,  777
6265, 1402,  131,  114,  115
6266, 1610,  794,  764,  795
6267,  747, 1155, 1151,  746
6268, 1610, 1217, 1565,  732
6269, 1216, 1565, 1613, 1217
6270, 1155,  777,  776,  746
6271, 1083,  807,  838,  837
6272, 1416, 1433,  744,  743
6273, 1265,  807,  776,  777
6274, 1443, 1613,  241,  225
6275, 1610, 1613, 1501, 1565
6276,  734, 1565, 1501, 1364
6277, 1610, 1565,  733,  732
6278, 1267, 1153,  283,  282
6279,  748,  779,  749, 1093
6280, 1133, 1018, 1610,  794
6281,  933, 1228,   57,  934
6282, 1134, 1133, 1020, 1611
6283, 1170, 1453,  242,  258
6284, 1310,  181,  164,  165
6285, 1555,  295,  312,  311
6286, 1369, 1266,  840,  839
6287, 1310,  196, 1387, 1396
6288, 1100,  812,  811,  781
6289,  751, 1101, 1097,  750
6290, 1337,  164,  147,  148
6291, 1337,  147,  164,  163
6292, 1557,  813,  782,  783
6293, 1268, 1599, 1557,  784
6294, 1336,  573, 1221,  574
6295, 1558,  844, 1367, 1554
6296, 1100,  782,  812,  781
6297, 1274,  751,  720,  721
6298, 1336,  572,  573,  603
6299,  404,   51, 1080,  940
6300, 1051, 1261,  291,  307
6301, 1268, 1273,  279,  263
6302, 1269,  783,  782,  752
6303, 1261, 1015,  291,  290
6304, 1051,  854, 1017, 1499
6305, 1419,  309,  325,  308
6306, 1051, 1468, 1497, 1498
6307, 1220, 1479, 1027, 1219
6308, 1051, 1015, 1499, 1017
6309, 1051, 1261,  323, 1497
6310,  998, 1068, 1069, 1070
6311, 1380,  499,  500,  530
6312, 1520,  501, 1380,  500
6313, 1604, 1594, 1382, 1605
6314, 1094, 1099, 1589, 1098
6315, 1185, 1040, 1538, 1184
6316, 1535, 1605,  155, 1607
6317,  855, 1241,  825, 1313
6318, 1069,  561,  562,  592
6319, 1345,  942,  410,  941
6320, 1189,  444,  450,  442
6321,  966, 1422, 1425,  278
6322, 1534, 1347,  137, 1068
6323,  825,  794, 1313, 1132
6324, 1444,  198,  197,  181
6325, 1535, 1068,  138,  154
6326, 1493,  471,  470,  456
6327, 1534,  137, 1347,  121
6328, 1278,  562,  532,  563
6329, 1218, 1565, 1217,  701
6330, 1313,  824,  793,  794
6331, 1545,  788,  789,  819
6332, 1477,  518,  519,  549
6333, 1514, 1475,  520,  994
6334, 1574,  112,  128,  111
6335, 1393, 1002,  194,  195
6336, 1303,  165, 1310, 1312
6337, 1310, 1387,  196,  197
6338, 1126,  645,  644,  614
6339,  959, 1227, 1215, 1001
6340, 1513,  971,  549,  580
6341, 1013, 1020, 1015, 1014
6342, 1143, 1167, 1438, 1140
6343, 1424, 1545,  819,  788
6344, 1564, 1477, 1515, 1414
6345, 1472, 1622, 1620, 1519
6346, 1410,  666,  635,  636
6347, 1225,  701,  670,  671
6348, 1447,  663,  632,  633
6349, 1000,  667,  636,  637
6350, 1002,  211, 1299, 1227
6351,  602,  632,  633, 1308
6352, 1051, 1498, 1497,  323
6353, 1443,  209,  225,  208
6354, 1393, 1396, 1299,  195
6355, 1299, 1288, 1298, 1301
6356, 1288, 1299, 1298, 1227
6357, 1218,  700,  699,  669
6358, 1139, 1141,  193, 1437
6359, 1019, 1611, 1453,  258
6360, 1436,  674,  704,  673
6361, 1447,  601,  632,  631
6362,  796,  826, 1132,  795
6363,  999,  669, 1218,  668
6364, 1525,  304,  303,  287
6365, 1261, 1259,  306, 1245
6366,  825, 1132,  795,  794
6367,  601, 1446,  600,  631
6368, 1215,  210,  959,  226
6369, 1000,  667,  637,  668
6370, 1322,  118, 1442, 1466
6371,  763, 1610, 1018,  794
6372, 1289,  699,  729,  698
6373, 1444, 1450,  198,  182
6374, 1445,  630,  631,  661
6375, 1243,  858, 1260,  859
6376, 1524,  862,  861,  831
6377, 1464,  537, 1462, 1319
6378, 1319,  599,  569,  600
6379, 1449,  166,  167,  183
6380, 1303, 1306, 1309,  570
6381, 1462, 1348, 1466,  538
6382, 1551, 1617,  597,  598
6383, 1464, 1552, 1551,  567
6384, 1281,  798,  828,  797
6385, 1464, 1551, 1552, 1463
6386,  599, 1617,  629, 1446
6387, 1580,  695,  664,  665
6388, 1588,  758,  757,  727
6389, 1524, 1282, 1523,  832
6390, 1544, 1546,  758, 1533
6391, 1281,  799,  830,  829
6392, 1580,  694,  663,  664
6393, 1006,  800,  770,  801
6394, 1004,  799, 1012,  768
6395, 1131, 1049,  302, 1130
6396, 1243,  858,  888,  857
6397, 1524,  831,  861,  830
6398, 1579, 1580, 1581, 1300
6399, 1131,  318, 1130,  302
6400, 1405, 1193,  269,  285
6401,  802, 1528, 1182,  833
6402, 1588,  756,  726,  757
6403, 1182,  802,  863, 1523
6404, 1293, 1580,  663, 1447
6405, 1301, 1299, 1410, 1388
6406, 1523,  832,  801,  771
6407,  960,  959, 1288,  227
6408, 1285, 1286, 1012, 1582
6409, 1310,  180,  164,  181
6410,  955,  407,   35,  401
6411,  772, 1523,  771,  802
6412, 1091, 1149, 1267,  299
6413, 1489, 1085,  804,  805
6414, 1369, 1148, 1541, 1149
6415, 1083, 1092,  837,  838
6416, 1092, 1502,  868,  869
6417, 1369, 1149, 1541, 1540
6418, 1369, 1373, 1148, 1374
6419,  413,   63,  987,  928
6420, 1490,  901,  900,  870
6421, 1083,  806,  837,  836
6422, 1369, 1372,  839,  870
6423, 1490, 1372,  869, 1502
6424, 1485,  895,  865,  896
6425, 1489,  774,  804,  773
6426, 1088, 1415,  284,  283
6427, 1303, 1306, 1305, 1312
6428,  986,  400,  985,  365
6429, 1372, 1266,  839,  838
6430, 1602,  317,  333,  316
6431, 1524, 1523,  863,  832
6432, 1416,  775, 1086,  774
6433, 1131, 1130, 1523, 1049
6434, 1601,  866,  865,  835
6435, 1602, 1486,  317, 1130
6436, 1129,  334, 1486,  318
6437, 1134, 1259, 1020, 1132
6438, 1486,  334,  333,  317
6439, 1616,  833,  834,  864
6440, 1583,  862,  863,  893
6441, 1088, 1416, 1267, 1086
6442, 1099, 1101, 1273, 1572
6443, 1561, 1583, 1563, 1560
6444, 1524,  863, 1523, 1182
6445, 1149,  298,  299,  315
6446,  780, 1093, 1098, 1101
6447, 1590,  810,  809,  779
6448, 1502, 1149,  315,  331
6449, 1619,  312, 1623,  313
6450, 1486,  317,  318,  334
6451,    5,  447,   95,  445
6452, 1094, 1589,  282, 1267
6453,  447,   95,  445,  995
6454,  520,  997,  489,  994
6455,  936,  388,   55,   54
6456,  997, 1527,  994, 1475
6457, 1264, 1052, 1418,  851
6458,  993, 1199,  995,  445
6459, 1092,  838,  868,  837
6460,  997,  489,  994,  992
6461, 1421, 1529, 1263, 1239
6462,  994,  460,  489,  488
6463, 1530,  920, 1504,  951
6464, 1430, 1375, 1373, 1371
6465, 1612,  874,  873,  843
6466, 1428,  875, 1368,  906
6467, 1506,  951, 1504,  367
6468, 1264,  819,  820,  850
6469, 1556, 1100,  812,  811
6470, 1555, 1557, 1367,  813
6471, 1557,  814,  813,  783
6472, 1541,  313, 1540,  314
6473, 1242, 1596, 1245, 1497
6474, 1385,  953,  922,  923
6475, 1385,  953, 1383,  376
6476, 1599, 1557,  784,  815
6477, 1504,  952,  376,  367
6478, 1503,  368,  376,  375
6479, 1358, 1506, 1500, 1530
6480, 1505, 1506, 1531, 1504
6481, 1260,  827,  857,  826
6482, 1424,  757,  787,  756
6483, 1469, 1625, 1529, 1422
6484, 1609,  797,  828,  827
6485, 1133, 1610, 1453, 1611
6486, 1262,  890, 1585, 1584
6487, 1262,  321,  320,  304
6488, 1262, 1526,  859, 1260
6489, 1585,  891,  890,  860
6490, 1254,  261,  260,  244
6491, 1562,  922, 1385, 1504
6492, 1257,  324,  341,  340
6493, 1243,  888,  858,  889
6494, 1544,  758,  788,  757
6495, 1262, 1531,  320,  321
6496, 1526,  859,  828,  829
6497, 1526,  860,  859,  829
6498, 1355,  372,  374,  371
6499, 1579, 1581,  696,  727
6500, 1355, 1354,  948, 1435
6501,  277, 1426,  276,  293
6502, 1418, 1263, 1073, 1257
6503, 1549,  292,  291,  275
6504, 1013, 1020, 1014, 1018
6505, 1261, 1241, 1468, 1499
6506, 1547,  791,  821,  790
6507, 1238,  325, 1239,  326
6508, 1264, 1418,  850,  851
6509, 1530, 1596, 1354, 1358
6510,  791, 1547,  822, 1014
6511,  371,  949,  948, 1344
6512, 1261,  307,  290,  291
6513, 1287,  243, 1255, 1448
6514,  275,  291, 1013,  274
6515,  598,  599, 1617,  629
6516,  948, 1344, 1355,  371
6517, 1550,  166,  150,  167
6518, 1596, 1358, 1531,  337
6519, 1241, 1468, 1499,  855
6520, 1305, 1321, 1550,  150
6521, 1056,  914,  884,  915
6522, 1506, 1505, 1531, 1358
6523, 1454, 1560, 1561, 1563
6524, 1530, 1500, 1358, 1354
6525, 1468,  854,  855,  885
6526, 1240, 1242, 1245, 1241
6527, 1020,  290,  289,  273
6528,  794, 1313, 1132, 1133
6529, 1506, 1505, 1358,  353
6530, 1354, 1500,  950, 1530
6531,  243, 1292, 1287,  959
6532, 1611,  274,  273,  257
6533, 1615,  304,  288,  305
6534, 1344, 1359,  353,  370
6535, 1240,  857,  887,  856
6536, 1305,  166,  165,  149
6537, 1312, 1311, 1336, 1598
6538, 1285,  272, 1591,  288
6539, 1584,  890,  921,  920
6540, 1262,  320, 1600,  304
6541,  949, 1500,  950, 1354
6542, 1454, 1280, 1560,  335
6543, 1506,  367,  369,  951
6544, 1525, 1600,  303,  304
6545, 1562,  922,  921,  891
6546, 1531,  336,  320,  337
6547, 1281,  829,  798,  799
6548, 1354,  948,  917,  918
6549,  369, 1506,  951,  950
6550, 1475,  520,  997,  521
6551, 1620,  552,  582,  551
6552, 1262, 1259, 1245,  305
6553, 1472, 1620, 1622, 1574
6554, 1622, 1620, 1519, 1171
6555, 1129, 1131,  303,  318
6556, 1005, 1006, 1007, 1283
6557, 1585,  860,  890,  859
6558,  955,   36,   35,  407
6559,  645,  644, 1179, 1126
6560, 1585,  892,  891,  861
6561, 1622, 1574,  128,  127
6562, 1282,  831,  830,  800
6563, 1620,  551, 1475,  552
6564, 1512, 1511,  157,  173
6565, 1516,  584,  553,  523
6566, 1504,  953,  952,  922
6567, 1516,  523,  554,  584
6568, 1524,  831,  832,  862
6569, 1014, 1547,  822, 1017
6570, 1524, 1282,  832,  831
6571, 1436, 1437, 1566, 1439
6572, 1516, 1509,  554,  555
6573, 1616,  865,  864,  834
6574, 1019,  275,  274,  258
6575, 1091,  807, 1266,  838
6576, 1149,  314, 1540,  298
6577, 1430,  329, 1541, 1373
6578, 1149, 1540, 1265, 1267
6579, 1430, 1232,  344,  345
6580, 1304,  166, 1305, 1307
6581, 1371,  841,  872,  871
6582,  396,  413,  928,   62
6583,   61,  396,  929,   62
6584, 1430, 1558, 1612, 1619
6585, 1488,  301,  317,  300
6586, 1085,  805,  836,  835
6587, 1430, 1619, 1541,  329
6588, 1014,  823,  792,  793
6589, 1265,  809, 1266,  808
6590, 1370,  810,  840,  809
6591,  932,  393,   59,   58
6592, 1114, 1108, 1209, 1207
6593, 1547, 1543, 1548,  791
6594, 1209,  215,  198,  199
6595, 1587,  753,  722,  723
6596, 1597, 1047, 1450,  183
6597, 1072, 1345,  911,  942
6598, 1602, 1486,  333,  317
6599, 1108, 1110,  690,  691
6600, 1106, 1586, 1205,  689
6601, 1263,  850,  881,  880
6602, 1229,  901,  932,  931
6603, 1209, 1204, 1206,  215
6604, 1207, 1109, 1114, 1108
6605, 1434, 1432, 1058,  251
6606, 1272, 1112, 1587, 1270
6607,  961,  934,  933,  903
6608, 1108,  690,  659,  660
6609, 1104, 1206, 1204,  215
6610,   57,  412,  933,   58
6611, 1555, 1556, 1623, 1100
6612, 1469,  817,  816,  786
6613, 1266,  809,  839,  808
6614, 1421, 1427, 1426, 1545
6615, 1424,  788,  818,  787
6616, 1239, 1422,  310,  309
6617, 1374,  902,  901,  871
6618, 1421, 1422, 1226,  293
6619, 1369,  870,  840,  871
6620, 1443,  241,  240,  224
6621, 1431, 1375,  873,  904
6622,  957,   55,  391,   56
6623, 1565,  703,  734,  733
6624, 1431,  906,  905,  875
6625, 1556, 1100,  813,  812
6626, 1216, 1217,  242,  226
6627, 1443,  225,  224,  208
6628,  795, 1610,  794, 1132
6629, 1364,  735,  765,  734
6630, 1370,  841,  840,  810
6631, 1375,  904,  903,  873
6632,  958, 1079, 1231,  389
6633, 1013, 1547, 1548,  791
6634, 1054, 1053,  853,  852
6635, 1619, 1370, 1540, 1623
6636,  938,  385,  386, 1076
6637,  411,  936,  937,   54
6638,  962,  905,  936,  935
6639, 1038,  716, 1151,  715
6640, 1612,  875,  874,  844
6641,  856,  855, 1241,  825
6642, 1589, 1265,  778, 1590
6643, 1259,  290,  306,  289
6644, 1556,  812,  813,  843
6645, 1261, 1313, 1015,  290
6646, 1151,  747,  746,  716
6647, 1367, 1554,  844,  845
6648, 1054, 1053, 1017,  853
6649, 1554,  877,  876,  846
6650,  875, 1431, 1428, 1429
6651, 1237,  877,  846,  847
6652,  939,   51,  386,   52
6653, 1261, 1241, 1245, 1468
6654,  937,   53,  385,  411
6655, 1259, 1241, 1261, 1313
6656, 1051, 1498,  323, 1420
6657, 1555, 1625,  295,  311
6658, 1419, 1420, 1016,  308
6659, 1419, 1418, 1264, 1052
6660, 1236, 1625,  310, 1239
6661, 1234,  879, 1571,  878
6662, 1529,  848,  818,  849
6663, 1426, 1549,  276,  292
6664, 1419, 1226, 1016, 1052
6665,   50,  941,  383,   49
6666, 1231, 1079,  361,  389
6667, 1263,  850,  880,  849
6668,  854, 1468, 1051, 1054
6669, 1426, 1547, 1549, 1016
6670, 1017, 1014,  823,  822
6671, 1015, 1499, 1017, 1014
6672, 1013,  275, 1549,  291
6673, 1072,   48,  380,  410
6674, 1558, 1236,  311,  327
6675, 1052,  882, 1057, 1418
6676, 1236, 1234, 1237,  847
6677, 1233,  849,  879,  848
6678, 1072,  943,   47,   48
6679, 1234, 1573, 1237,  878
6680, 1258, 1075, 1343,  356
6681, 1054, 1051, 1017, 1053
6682, 1341,   46,   45,  378
6683, 1054, 1057, 1420, 1052
6684, 1496,  355, 1343,  377
6685, 1621,  621,  620,  590
6686, 1605, 1621, 1316, 1604
6687, 1613,  258,  257,  241
6688, 1592,  797,  796,  766
6689, 1052,  882, 1418,  851
6690, 1606,  527, 1603,  528
6691, 1420,  308,  324,  307
6692, 1290,  700,  730,  699
6693, 1356,  339, 1576,  338
6694, 1061, 1119, 1059,  683
6695,   44,  947,  373,   43
6696, 1054, 1056,  883,  884
6697, 1162,  651, 1317, 1467
6698, 1409, 1193,  268,  269
6699, 1314,  618,  587,  588
6700, 1592,  767,  798,  797
6701,  776, 1416, 1155,  745
6702, 1310, 1312, 1598, 1311
6703, 1459, 1172, 1171, 1126
6704, 1416,  776,  775,  745
6705, 1056,  885,  916,  915
6706, 1316, 1314,  619, 1165
6707,   41,  371,  949,   42
6708, 1610, 1292, 1217,  762
6709, 1622, 1515,  974,  144
6710, 1611, 1020, 1019, 1133
6711, 1140,  610,  973,  611
6712,  548,  578,  579, 1413
6713, 1242,  886,  856,  887
6714, 1242,  887,  918,  917
6715, 1413, 1414,  128, 1515
6716, 1620, 1171,  584, 1509
6717, 1167,  644,  643,  613
6718, 1015, 1020, 1313, 1014
6719, 1468, 1494,  885,  886
6720, 1513,  550,  580,  549
6721, 1019, 1453, 1170,  258
6722, 1179, 1126,  646,  645
6723, 1259,  289,  306,  305
6724, 1240,  857,  888,  887
6725, 1240, 1243, 1244,  888
6726,  826, 1609,  796, 1132
6727, 1245,  322,  321,  305
6728, 1058, 1066, 1037,  251
6729, 1004, 1005, 1007, 1286
6730, 1032, 1035, 1036,  249
6731, 1243,  859,  889,  858
6732, 1505,  336,  353,  352
6733, 1106, 1586,  689,  688
6734, 1440,  717,  686,  687
6735, 1146, 1595,  624,  623
6736, 1593, 1144,  187, 1161
6737,  986, 1384,  406,  366
6738, 1262, 1615, 1260, 1259
6739, 1260,  859,  858,  828
6740,  405,  953,  954,   37
6741, 1108, 1208, 1207,  660
6742, 1243,  859,  890,  889
6743, 1385,  923,  954,  953
6744, 1585,  861,  891,  860
6745, 1236, 1529, 1625, 1239
6746, 1005, 1284, 1285, 1281
6747,  625, 1022, 1411,  626
6748, 1586,  658,  688,  657
6749, 1154,  657, 1411, 1045
6750, 1262,  859, 1526, 1585
6751, 1133, 1020, 1018, 1313
6752, 1524,  832,  863,  862
6753, 1009, 1012, 1582, 1592
6754, 1542, 1551, 1463, 1123
6755, 1561,  894,  924,  893
6756, 1322,  117,  118,  134
6757, 1462, 1465, 1322, 1321
6758, 1320,  540,  571,  570
6759, 1614,  867,  897,  866
6760, 1182,  833,  894,  863
6761, 1131, 1182, 1523, 1130
6762, 1326,  509,  540,  539
6763, 1326, 1320,  540,  541
6764, 1421, 1423,  966, 1424
6765,  393,  932,  412,   58
6766, 1305, 1319, 1550, 1321
6767,  987,  413,  398,  399
6768, 1319,  568,  537,  538
6769, 1377,  122, 1536,  138
6770,  930,   60, 1328,  397
6771, 1443,  224,  225,  241
6772, 1392, 1166, 1318, 1163
6773,  397,  396,  929,   61
6774, 1279, 1483, 1486,  349
6775, 1615, 1526,  828, 1281
6776, 1073,  912,  911,  881
6777, 1149, 1266, 1265, 1540
6778, 1164,  123,  140,  139
6779,  929, 1327,  928,  396
6780, 1603,  528, 1379, 1606
6781, 1482, 1164, 1536,  123
6782, 1328,  403,   59,  393
6783, 1624,  557,  526,  527
6784, 1431,  962, 1232,  904
6785, 1211,  494,  463,  464
6786,  991,  981,  983,  462
6787, 1516, 1476,  524, 1473
6788, 1016,  308,  307,  291
6789, 1148, 1490, 1332, 1502
6790, 1228,  412,  933,   57
6791, 1575,  525,  494,  495
6792, 1341, 1074,  944,  381
6793, 1559, 1251, 1075,  357
6794, 1053, 1017,  822, 1547
6795,  962,  935,  904,  905
6796, 1054,  883,  852,  853
6797, 1371,  842,  872,  841
6798,  957,   55,  388,  391
6799, 1571, 1253,  909,  910
6800, 1346, 1343, 1495, 1342
6801, 1431, 1232, 1375,  904
6802, 1494, 1056,  885,  916
6803, 1054,  884,  883,  853
6804, 1612,  874,  843,  844
6805, 1558, 1554, 1612,  844
6806, 1056,  914, 1342, 1057
6807, 1056,  915, 1342,  914
6808, 1478,  547,  577,  546
6809, 1029,  577,  578,  608
6810, 1025,  972, 1142, 1031
6811, 1081, 1077,  907,  938
6812, 1480,  146, 1025,  162
6813, 1554,  846,  876,  845
6814, 1076,  938,  385,  937
6815, 1080,  386,   51,  404
6816, 1024,  606,  576,  607
6817,  972,  162,  145, 1480
6818, 1571,  879,  910,  909
6819, 1573, 1368, 1078, 1235
6820, 1474, 1527,  995,  997
6821,  996, 1474, 1412,  995
6822,  941,  942,  410,   49
6823,  994,  488,  443,  460
6824, 1428, 1079, 1232,  962
6825,  747, 1152, 1155,  778
6826, 1472, 1620, 1473, 1516
6827,  983,  461,  492,  522
6828,  448,  491,  983,  996
6829, 1470, 1472,  142,  126
6830,  408,  950,   40,   41
6831, 1075,  379,  380,  381
6832, 1472, 1620, 1475, 1473
6833,  997,  520,  489,  490
6834, 1162,  652,  651, 1467
6835, 1302, 1157, 1064, 1441
6836, 1593, 1317, 1161, 1315
6837, 1052,  851,  852,  882
6838, 1419,  324, 1420,  308
6839,  242, 1292,  959, 1217
6840, 1120,  219,  218,  202
6841,  409, 1343,  378,  377
6842, 1059, 1151,  714,  715
6843, 1420,  324,  323,  307
6844, 1099,  280, 1572, 1273
6845, 1153,  283,  282,  266
6846, 1432, 1066, 1153, 1151
6847, 1019, 1448, 1548, 1255
6848,   43,  947,  373,  374
*Nset, nset=Set-1, generate
    1,  1626,     1
*Elset, elset=Set-1, generate
    1,  6848,     1
** Section: Section-1
*Solid Section, elset=Set-1, material=Material-1
,
*End Instance
**  
*Instance, name=Part-2-1, part=Part-2
*Node
      1,           0.,           1.,           0.
      2,           0.,           1.,           7.
      3, -0.382683426,  0.923879504,           0.
      4, -0.707106769,  0.707106769,           0.
      5, -0.923879504,  0.382683426,           0.
      6,          -1.,           0.,           0.
      7, -0.923879504, -0.382683426,           0.
      8, -0.707106769, -0.707106769,           0.
      9, -0.382683426, -0.923879504,           0.
     10,           0.,          -1.,           0.
     11,  0.382683426, -0.923879504,           0.
     12,  0.707106769, -0.707106769,           0.
     13,  0.923879504, -0.382683426,           0.
     14,           1.,           0.,           0.
     15,  0.923879504,  0.382683426,           0.
     16,  0.707106769,  0.707106769,           0.
     17,  0.382683426,  0.923879504,           0.
     18,  0.382683426,  0.923879504,           7.
     19,  0.707106769,  0.707106769,           7.
     20,  0.923879504,  0.382683426,           7.
     21,           1.,           0.,           7.
     22,  0.923879504, -0.382683426,           7.
     23,  0.707106769, -0.707106769,           7.
     24,  0.382683426, -0.923879504,           7.
     25,           0.,          -1.,           7.
     26, -0.382683426, -0.923879504,           7.
     27, -0.707106769, -0.707106769,           7.
     28, -0.923879504, -0.382683426,           7.
     29,          -1.,           0.,           7.
     30, -0.923879504,  0.382683426,           7.
     31, -0.707106769,  0.707106769,           7.
     32, -0.382683426,  0.923879504,           7.
     33, 0.0376401879,  0.673676968,           0.
     34, -0.317672879,  0.476883948,           0.
     35,  0.458943427,  0.489165753,           0.
     36,  0.611718595, 0.0235687476,           0.
     37,  0.571489155,  -0.35045296,           0.
     38, -0.0389221609, -0.689208865,           0.
     39, -0.452782214, -0.518495679,           0.
     40, -0.568967164, -0.134779543,           0.
     41, 0.0994672626,  0.190339804,           0.
     42, -0.0934405699, -0.247762591,           0.
     43, -0.637541175,  0.255957335,           0.
     44,  0.305037677, -0.515609384,           0.
     45, -0.303630888,  0.108127788,           0.
     46,   0.29885444, -0.179983273,           0.
     47,  0.382683426,  0.923879504,   6.61111116
     48,  0.707106769,  0.707106769,   6.61111116
     49,  0.923879504,  0.382683426,   6.61111116
     50,           1.,           0.,   6.61111116
     51,  0.923879504, -0.382683426,   6.61111116
     52,  0.707106769, -0.707106769,   6.61111116
     53,  0.382683426, -0.923879504,   6.61111116
     54,           0.,          -1.,   6.61111116
     55, -0.382683426, -0.923879504,   6.61111116
     56, -0.707106769, -0.707106769,   6.61111116
     57, -0.923879504, -0.382683426,   6.61111116
     58,          -1.,           0.,   6.61111116
     59, -0.923879504,  0.382683426,   6.61111116
     60, -0.707106769,  0.707106769,   6.61111116
     61, -0.382683426,  0.923879504,   6.61111116
     62,           0.,           1.,   6.61111116
     63,  0.382683426,  0.923879504,   6.22222233
     64,  0.707106769,  0.707106769,   6.22222233
     65,  0.923879504,  0.382683426,   6.22222233
     66,           1.,           0.,   6.22222233
     67,  0.923879504, -0.382683426,   6.22222233
     68,  0.707106769, -0.707106769,   6.22222233
     69,  0.382683426, -0.923879504,   6.22222233
     70,           0.,          -1.,   6.22222233
     71, -0.382683426, -0.923879504,   6.22222233
     72, -0.707106769, -0.707106769,   6.22222233
     73, -0.923879504, -0.382683426,   6.22222233
     74,          -1.,           0.,   6.22222233
     75, -0.923879504,  0.382683426,   6.22222233
     76, -0.707106769,  0.707106769,   6.22222233
     77, -0.382683426,  0.923879504,   6.22222233
     78,           0.,           1.,   6.22222233
     79,  0.382683426,  0.923879504,   5.83333349
     80,  0.707106769,  0.707106769,   5.83333349
     81,  0.923879504,  0.382683426,   5.83333349
     82,           1.,           0.,   5.83333349
     83,  0.923879504, -0.382683426,   5.83333349
     84,  0.707106769, -0.707106769,   5.83333349
     85,  0.382683426, -0.923879504,   5.83333349
     86,           0.,          -1.,   5.83333349
     87, -0.382683426, -0.923879504,   5.83333349
     88, -0.707106769, -0.707106769,   5.83333349
     89, -0.923879504, -0.382683426,   5.83333349
     90,          -1.,           0.,   5.83333349
     91, -0.923879504,  0.382683426,   5.83333349
     92, -0.707106769,  0.707106769,   5.83333349
     93, -0.382683426,  0.923879504,   5.83333349
     94,           0.,           1.,   5.83333349
     95,  0.382683426,  0.923879504,   5.44444466
     96,  0.707106769,  0.707106769,   5.44444466
     97,  0.923879504,  0.382683426,   5.44444466
     98,           1.,           0.,   5.44444466
     99,  0.923879504, -0.382683426,   5.44444466
    100,  0.707106769, -0.707106769,   5.44444466
    101,  0.382683426, -0.923879504,   5.44444466
    102,           0.,          -1.,   5.44444466
    103, -0.382683426, -0.923879504,   5.44444466
    104, -0.707106769, -0.707106769,   5.44444466
    105, -0.923879504, -0.382683426,   5.44444466
    106,          -1.,           0.,   5.44444466
    107, -0.923879504,  0.382683426,   5.44444466
    108, -0.707106769,  0.707106769,   5.44444466
    109, -0.382683426,  0.923879504,   5.44444466
    110,           0.,           1.,   5.44444466
    111,  0.382683426,  0.923879504,   5.05555534
    112,  0.707106769,  0.707106769,   5.05555534
    113,  0.923879504,  0.382683426,   5.05555534
    114,           1.,           0.,   5.05555534
    115,  0.923879504, -0.382683426,   5.05555534
    116,  0.707106769, -0.707106769,   5.05555534
    117,  0.382683426, -0.923879504,   5.05555534
    118,           0.,          -1.,   5.05555534
    119, -0.382683426, -0.923879504,   5.05555534
    120, -0.707106769, -0.707106769,   5.05555534
    121, -0.923879504, -0.382683426,   5.05555534
    122,          -1.,           0.,   5.05555534
    123, -0.923879504,  0.382683426,   5.05555534
    124, -0.707106769,  0.707106769,   5.05555534
    125, -0.382683426,  0.923879504,   5.05555534
    126,           0.,           1.,   5.05555534
    127,  0.382683426,  0.923879504,   4.66666651
    128,  0.707106769,  0.707106769,   4.66666651
    129,  0.923879504,  0.382683426,   4.66666651
    130,           1.,           0.,   4.66666651
    131,  0.923879504, -0.382683426,   4.66666651
    132,  0.707106769, -0.707106769,   4.66666651
    133,  0.382683426, -0.923879504,   4.66666651
    134,           0.,          -1.,   4.66666651
    135, -0.382683426, -0.923879504,   4.66666651
    136, -0.707106769, -0.707106769,   4.66666651
    137, -0.923879504, -0.382683426,   4.66666651
    138,          -1.,           0.,   4.66666651
    139, -0.923879504,  0.382683426,   4.66666651
    140, -0.707106769,  0.707106769,   4.66666651
    141, -0.382683426,  0.923879504,   4.66666651
    142,           0.,           1.,   4.66666651
    143,  0.382683426,  0.923879504,   4.27777767
    144,  0.707106769,  0.707106769,   4.27777767
    145,  0.923879504,  0.382683426,   4.27777767
    146,           1.,           0.,   4.27777767
    147,  0.923879504, -0.382683426,   4.27777767
    148,  0.707106769, -0.707106769,   4.27777767
    149,  0.382683426, -0.923879504,   4.27777767
    150,           0.,          -1.,   4.27777767
    151, -0.382683426, -0.923879504,   4.27777767
    152, -0.707106769, -0.707106769,   4.27777767
    153, -0.923879504, -0.382683426,   4.27777767
    154,          -1.,           0.,   4.27777767
    155, -0.923879504,  0.382683426,   4.27777767
    156, -0.707106769,  0.707106769,   4.27777767
    157, -0.382683426,  0.923879504,   4.27777767
    158,           0.,           1.,   4.27777767
    159,  0.382683426,  0.923879504,   3.88888884
    160,  0.707106769,  0.707106769,   3.88888884
    161,  0.923879504,  0.382683426,   3.88888884
    162,           1.,           0.,   3.88888884
    163,  0.923879504, -0.382683426,   3.88888884
    164,  0.707106769, -0.707106769,   3.88888884
    165,  0.382683426, -0.923879504,   3.88888884
    166,           0.,          -1.,   3.88888884
    167, -0.382683426, -0.923879504,   3.88888884
    168, -0.707106769, -0.707106769,   3.88888884
    169, -0.923879504, -0.382683426,   3.88888884
    170,          -1.,           0.,   3.88888884
    171, -0.923879504,  0.382683426,   3.88888884
    172, -0.707106769,  0.707106769,   3.88888884
    173, -0.382683426,  0.923879504,   3.88888884
    174,           0.,           1.,   3.88888884
    175,  0.382683426,  0.923879504,          3.5
    176,  0.707106769,  0.707106769,          3.5
    177,  0.923879504,  0.382683426,          3.5
    178,           1.,           0.,          3.5
    179,  0.923879504, -0.382683426,          3.5
    180,  0.707106769, -0.707106769,          3.5
    181,  0.382683426, -0.923879504,          3.5
    182,           0.,          -1.,          3.5
    183, -0.382683426, -0.923879504,          3.5
    184, -0.707106769, -0.707106769,          3.5
    185, -0.923879504, -0.382683426,          3.5
    186,          -1.,           0.,          3.5
    187, -0.923879504,  0.382683426,          3.5
    188, -0.707106769,  0.707106769,          3.5
    189, -0.382683426,  0.923879504,          3.5
    190,           0.,           1.,          3.5
    191,  0.382683426,  0.923879504,   3.11111116
    192,  0.707106769,  0.707106769,   3.11111116
    193,  0.923879504,  0.382683426,   3.11111116
    194,           1.,           0.,   3.11111116
    195,  0.923879504, -0.382683426,   3.11111116
    196,  0.707106769, -0.707106769,   3.11111116
    197,  0.382683426, -0.923879504,   3.11111116
    198,           0.,          -1.,   3.11111116
    199, -0.382683426, -0.923879504,   3.11111116
    200, -0.707106769, -0.707106769,   3.11111116
    201, -0.923879504, -0.382683426,   3.11111116
    202,          -1.,           0.,   3.11111116
    203, -0.923879504,  0.382683426,   3.11111116
    204, -0.707106769,  0.707106769,   3.11111116
    205, -0.382683426,  0.923879504,   3.11111116
    206,           0.,           1.,   3.11111116
    207,  0.382683426,  0.923879504,   2.72222233
    208,  0.707106769,  0.707106769,   2.72222233
    209,  0.923879504,  0.382683426,   2.72222233
    210,           1.,           0.,   2.72222233
    211,  0.923879504, -0.382683426,   2.72222233
    212,  0.707106769, -0.707106769,   2.72222233
    213,  0.382683426, -0.923879504,   2.72222233
    214,           0.,          -1.,   2.72222233
    215, -0.382683426, -0.923879504,   2.72222233
    216, -0.707106769, -0.707106769,   2.72222233
    217, -0.923879504, -0.382683426,   2.72222233
    218,          -1.,           0.,   2.72222233
    219, -0.923879504,  0.382683426,   2.72222233
    220, -0.707106769,  0.707106769,   2.72222233
    221, -0.382683426,  0.923879504,   2.72222233
    222,           0.,           1.,   2.72222233
    223,  0.382683426,  0.923879504,   2.33333325
    224,  0.707106769,  0.707106769,   2.33333325
    225,  0.923879504,  0.382683426,   2.33333325
    226,           1.,           0.,   2.33333325
    227,  0.923879504, -0.382683426,   2.33333325
    228,  0.707106769, -0.707106769,   2.33333325
    229,  0.382683426, -0.923879504,   2.33333325
    230,           0.,          -1.,   2.33333325
    231, -0.382683426, -0.923879504,   2.33333325
    232, -0.707106769, -0.707106769,   2.33333325
    233, -0.923879504, -0.382683426,   2.33333325
    234,          -1.,           0.,   2.33333325
    235, -0.923879504,  0.382683426,   2.33333325
    236, -0.707106769,  0.707106769,   2.33333325
    237, -0.382683426,  0.923879504,   2.33333325
    238,           0.,           1.,   2.33333325
    239,  0.382683426,  0.923879504,   1.94444442
    240,  0.707106769,  0.707106769,   1.94444442
    241,  0.923879504,  0.382683426,   1.94444442
    242,           1.,           0.,   1.94444442
    243,  0.923879504, -0.382683426,   1.94444442
    244,  0.707106769, -0.707106769,   1.94444442
    245,  0.382683426, -0.923879504,   1.94444442
    246,           0.,          -1.,   1.94444442
    247, -0.382683426, -0.923879504,   1.94444442
    248, -0.707106769, -0.707106769,   1.94444442
    249, -0.923879504, -0.382683426,   1.94444442
    250,          -1.,           0.,   1.94444442
    251, -0.923879504,  0.382683426,   1.94444442
    252, -0.707106769,  0.707106769,   1.94444442
    253, -0.382683426,  0.923879504,   1.94444442
    254,           0.,           1.,   1.94444442
    255,  0.382683426,  0.923879504,   1.55555558
    256,  0.707106769,  0.707106769,   1.55555558
    257,  0.923879504,  0.382683426,   1.55555558
    258,           1.,           0.,   1.55555558
    259,  0.923879504, -0.382683426,   1.55555558
    260,  0.707106769, -0.707106769,   1.55555558
    261,  0.382683426, -0.923879504,   1.55555558
    262,           0.,          -1.,   1.55555558
    263, -0.382683426, -0.923879504,   1.55555558
    264, -0.707106769, -0.707106769,   1.55555558
    265, -0.923879504, -0.382683426,   1.55555558
    266,          -1.,           0.,   1.55555558
    267, -0.923879504,  0.382683426,   1.55555558
    268, -0.707106769,  0.707106769,   1.55555558
    269, -0.382683426,  0.923879504,   1.55555558
    270,           0.,           1.,   1.55555558
    271,  0.382683426,  0.923879504,   1.16666663
    272,  0.707106769,  0.707106769,   1.16666663
    273,  0.923879504,  0.382683426,   1.16666663
    274,           1.,           0.,   1.16666663
    275,  0.923879504, -0.382683426,   1.16666663
    276,  0.707106769, -0.707106769,   1.16666663
    277,  0.382683426, -0.923879504,   1.16666663
    278,           0.,          -1.,   1.16666663
    279, -0.382683426, -0.923879504,   1.16666663
    280, -0.707106769, -0.707106769,   1.16666663
    281, -0.923879504, -0.382683426,   1.16666663
    282,          -1.,           0.,   1.16666663
    283, -0.923879504,  0.382683426,   1.16666663
    284, -0.707106769,  0.707106769,   1.16666663
    285, -0.382683426,  0.923879504,   1.16666663
    286,           0.,           1.,   1.16666663
    287,  0.382683426,  0.923879504,  0.777777791
    288,  0.707106769,  0.707106769,  0.777777791
    289,  0.923879504,  0.382683426,  0.777777791
    290,           1.,           0.,  0.777777791
    291,  0.923879504, -0.382683426,  0.777777791
    292,  0.707106769, -0.707106769,  0.777777791
    293,  0.382683426, -0.923879504,  0.777777791
    294,           0.,          -1.,  0.777777791
    295, -0.382683426, -0.923879504,  0.777777791
    296, -0.707106769, -0.707106769,  0.777777791
    297, -0.923879504, -0.382683426,  0.777777791
    298,          -1.,           0.,  0.777777791
    299, -0.923879504,  0.382683426,  0.777777791
    300, -0.707106769,  0.707106769,  0.777777791
    301, -0.382683426,  0.923879504,  0.777777791
    302,           0.,           1.,  0.777777791
    303,  0.382683426,  0.923879504,  0.388888896
    304,  0.707106769,  0.707106769,  0.388888896
    305,  0.923879504,  0.382683426,  0.388888896
    306,           1.,           0.,  0.388888896
    307,  0.923879504, -0.382683426,  0.388888896
    308,  0.707106769, -0.707106769,  0.388888896
    309,  0.382683426, -0.923879504,  0.388888896
    310,           0.,          -1.,  0.388888896
    311, -0.382683426, -0.923879504,  0.388888896
    312, -0.707106769, -0.707106769,  0.388888896
    313, -0.923879504, -0.382683426,  0.388888896
    314,          -1.,           0.,  0.388888896
    315, -0.923879504,  0.382683426,  0.388888896
    316, -0.707106769,  0.707106769,  0.388888896
    317, -0.382683426,  0.923879504,  0.388888896
    318,           0.,           1.,  0.388888896
    319, -0.00598383462,  0.670146823,           7.
    320,  0.353343874,  0.471505076,           7.
    321, -0.411795408,  0.429277867,           7.
    322, -0.625009477, -0.0244471189,           7.
    323, -0.588532746, -0.394323766,           7.
    324, -0.0296289176,  -0.61427772,           7.
    325,  0.437749445, -0.411203086,           7.
    326,  0.678421617, -0.104596227,           7.
    327, 0.0386451781, -0.157813415,           7.
    328, 0.0153677231,  0.252806276,           7.
    329, -0.401595116, -0.584340155,           7.
    330,  0.671219707,  0.249041021,           7.
    331, -0.256563127, 0.0435421318,           7.
    332, -0.310447365, -0.288610011,           7.
    333,  0.365791261, 0.0499566086,           7.
    334,  0.175952256, -0.173647419,   3.72066021
    335, -0.125778422,  0.182631746,   3.93837786
    336,  0.041763708,  0.187601462,   3.47674108
    337, -0.415700287, 0.0462572053,   3.52164006
    338,  0.440350205, -0.545072496,   3.37118077
    339,  0.345694125, -0.150085166,   3.39402246
    340,  0.583609998, -0.330585003,   3.56687045
    341, 0.00328210555, -0.686485052,   3.74409962
    342, -0.0269020032, -0.293639809,   3.38670707
    343, -0.282320052, -0.503465354,   3.60691285
    344,  0.321604669, -0.520631015,   3.75168896
    345, -0.000967516156, -0.245794326,   4.04772568
    346,  0.293896109, -0.154727206,   4.20214558
    347,  0.446262598,  0.403879017,   3.69043565
    348,  0.125682205,  -0.18462266,   6.10554123
    349, -0.181775093, -0.0785350874,   5.83030128
    350,  0.309194565, -0.407882988,   5.72669268
    351, -0.0249381494, -0.593995035,   5.80696297
    352,  0.276222765, -0.00343109062,   5.64065123
    353,  0.431529045, 0.0601358712,   6.13620901
    354,  0.210777521,  0.171965137,    3.9121139
    355,  0.268712312,  0.173256338,   4.39886761
    356, 0.0311733522,  0.611660004,   3.99133849
    357, -0.0514929667,  0.600385904,   4.28998184
    358,  0.590190172,  0.159619763,   3.83996081
    359, -0.494573683,  0.463986516,   4.78012514
    360, -0.553475976,  0.385553867,   5.11324501
    361, -0.160163835,  0.671008348,   4.82734251
    362,  0.198239714,  0.672096491,    3.6288197
    363, 0.0104240775, -0.356837869,   6.39956808
    364,  0.451339632, -0.526668012,   6.49505949
    365,  0.283678204, -0.642901182,   6.77375364
    366,  0.205756366, -0.639010727,   6.29793358
    367, -0.231184483, -0.651522338,    6.5029397
    368,  0.213164821, -0.670040846,   6.08105993
    369, -0.184704244, -0.441808134,   6.12477446
    370,  0.565773487,  -0.39867118,   6.08599424
    371, -0.654679418, -0.547694385,   3.46357322
    372, -0.638453782,  0.327264339,   4.10881758
    373, -0.683910668, 0.0320158266,   3.81925988
    374, -0.354164124,  0.561867058,   3.94188976
    375, -0.336615354, -0.140002951,   4.17948818
    376, -0.695253909, -0.0705954209,   4.40723753
    377, -0.312645614,  0.218739346,   4.33402395
    378,  0.533940315,  0.413688093,   1.65568233
    379, -0.585902393,   0.35818848,   3.52180243
    380,  0.178851262,  0.635972917,   5.53458643
    381, -0.049326919,  0.297508121,   5.36632252
    382, -0.0819932222,   0.71202451,   5.59329891
    383, -0.148444116,  0.688704789,    5.3124876
    384, -0.279354095,   0.60649693,   5.68995476
    385,   0.13355802,  0.088413775,  0.990644872
    386,  0.550803125, 0.0748641118,   1.37379277
    387,  0.379174113, -0.206926078,  0.821357489
    388,  0.515601873,  0.443358302,  0.893517256
    389,  0.698295712, -0.0687676966,   1.03199494
    390,  0.449344307, -0.474148095,   1.01667821
    391,  0.657053411,  0.103803575,  0.568302393
    392, -0.203745067,  0.226534456,   1.36867321
    393, -0.307024986, -0.125552297,   1.45421278
    394, -0.671683252,  0.129598394,   1.42164934
    395, -0.402566969, -0.0792556256,  0.967667043
    396, -0.621066868,  0.212448284,    1.6910224
    397, -0.577446163,  0.340361714,   1.04869723
    398, -0.201191038,  0.667866349,    4.1421504
    399,  0.109040223, -0.197649986,   1.45587027
    400, -0.0744175985, -0.179291561,   1.09528744
    401, -0.076536648,  0.615224123,   1.24444449
    402, -0.228064224, 0.0411429368,   2.49251676
    403, -0.331342787,  0.108768858,   2.14595008
    404, -0.674437225,  0.210335881,    2.2366066
    405, -0.0388310067,  0.329868913,    2.2729342
    406, -0.220228314, -0.047499191,   1.80007458
    407, -0.291558892,  0.529696882,   2.01391435
    408, 0.0415827967,  0.035789229,   2.10360384
    409,   0.24388501,  0.649114668,   2.88380122
    410,  0.283209085,  0.283798814,   2.68563175
    411,  0.593736529,  0.178249106,   2.83402038
    412,  0.026042236,   0.35798806,   3.03999352
    413, -0.0512854494,  0.113719061,   2.81407094
    414, -0.0143899182,  0.446666121,   2.60605621
    415, -0.110198848, -0.219248384,   3.01378942
    416, -0.376825362,  0.316036344,   2.91501498
    417, -0.499699026, -0.480773479,   4.10094547
    418,  -0.29939881, -0.332857937,    3.8784318
    419, 0.0624504611, -0.240310252,   4.53452921
    420,  -0.25129348, -0.216942653,   4.76059818
    421, -0.350329071, 0.0603531413,   4.63382053
    422, -0.488604516, -0.413969219,   4.56182098
    423, -0.0178538207, -0.0679815337,   5.46996832
    424,  0.537428141, -0.145856827,   5.32327223
    425,  0.521001697,   0.15293406,   5.12632036
    426, -0.366891265, -0.518473387,   5.80032492
    427,  0.106828503, -0.459142715,   5.38684177
    428, -0.423467457, -0.490217626,   5.34405994
    429,   -0.6178087,  0.322435617,   5.69530296
    430, -0.396055967, -0.128197223,   5.40292788
    431, 0.0717567056,   0.36514467,   1.63678563
    432,  0.204776436,  0.667836249,   1.29662347
    433,  0.177039489,  0.196519285,   1.35043192
    434, -0.689421296, -0.048495084,   4.79629612
    435, -0.339251429,  0.591141701,   4.42059898
    436, -0.0125950025,  0.316560477,   4.68346119
    437, -0.162438512,  0.149751276,   4.97941828
    438, 0.0751115307, -0.696953058,   4.79080057
    439,   0.07536605, -0.381950706,   1.95255589
    440, 0.0836302862, -0.692467511,   1.57866633
    441,  0.538233399, -0.451576412,   2.08830309
    442,  0.514311552, -0.380923778,   1.81129277
    443,  0.542139828, -0.150047481,   2.21501708
    444,  0.198079199, -0.590633154,   2.30821753
    445,  0.538091481, -0.449541599,   2.47176099
    446, -0.618236184,  -0.30354467,   5.85522699
    447,  0.717049181, -0.0460550115,   6.07977676
    448,  0.695304453, 0.00524374237,    6.4091506
    449,   0.62365061, -0.305434465,   5.69969273
    450,  0.110536277,  0.161386311,   6.41481924
    451,  0.362925857, -0.118541121,    6.4293704
    452, -0.311735749,  0.635491371,  0.346482217
    453, -0.585091412,   0.47455737,  0.244212836
    454,  0.491231263,  0.380138069,   4.82604885
    455, 0.0911637843,  0.645937204,   5.03460836
    456,  0.231334791,  0.578337014,   4.58803368
    457, -0.419341981, -0.498015404,   1.27083576
    458, -0.224739984, -0.554725051,   1.47454393
    459,  0.522409081, -0.458355665,   5.20885611
    460,  0.684009075, 0.00737210037,   3.33951902
    461,  0.544191897, -0.379056603,   3.19998217
    462,  0.569216073,  0.218342945,   5.52273417
    463, -0.0432721823, -0.317030907,   5.07294273
    464,  0.238576531, -0.0925636292,    4.8249054
    465, -0.688919365,  0.147517383,   6.80246687
    466, -0.647568464, -0.153327808,    5.0673027
    467, -0.108781271, -0.691335976,   4.93889093
    468, -0.484715402, -0.433371842,   4.95185137
    469, -0.307142049, -0.642843068,   4.69051313
    470,   0.39238587,  0.467499197,   4.06186342
    471,  0.443153441,  0.397139221,   3.28202772
    472, -0.274385273,  0.651196003,   1.38381565
    473, -0.156483993,  0.633267224,    1.5917207
    474, -0.372311473, -0.466580898,   2.23980212
    475, -0.524201334, -0.394962966,   1.84776533
    476,  0.329376727, -0.025434766,   1.69567156
    477, -0.565201461, -0.370714307,   1.49258006
    478,  -0.69353658, -0.109492943,   1.90530145
    479,  0.142160133, -0.210456938,   2.46822262
    480, -0.493991047,  0.012959484,    2.7308743
    481, -0.0705129504, -0.695253491,   4.14733839
    482,  0.262893021, -0.038778685,   2.91048026
    483,   0.23312971, -0.585977376,   5.08767462
    484,  0.418724328, -0.398310244,    4.6614275
    485,  0.624530315,  -0.32088545,   4.91535282
    486, -0.0908884332, -0.692586839,   5.32792282
    487,  0.132448614,  0.662915289,   1.95626152
    488,  0.676537633, 0.0961476937,   2.05868244
    489,  0.430628031,  0.365753919,   2.17262149
    490,  0.224883214, -0.702994466,  0.229300141
    491,  0.495037496, -0.430143833,  0.476878315
    492,  0.503433883,  0.530377984,    2.5581727
    493,  0.192536592,  0.595520794,   2.34582949
    494,   0.64802742,  0.118667498,   2.43703723
    495,  0.151545301,  0.417710692,  0.588978946
    496,  0.093469508, -0.0181579981,  0.645122826
    497, -0.308386236,  0.305936396,  0.695654869
    498, -0.0110856425,   0.69799149,  0.574663043
    499, -0.066440247,   0.69726789,  0.903528512
    500, -0.155972287,  0.234744608,  0.382701129
    501,  0.328944862,   0.14183645,  0.297294974
    502, 0.0382678807, -0.546715796,   1.16666675
    503,  0.409839302, -0.564090312,   1.49560189
    504,  0.616168559, -0.330603182,   1.42352366
    505,  0.149938405,  -0.59107697,     0.842767
    506,  0.393754244,  0.578508139,   0.41955629
    507, -0.439768016,  0.529907942,   5.33768559
    508,  0.726734996,  0.106784165,   4.31862068
    509,   0.67947036, -0.0565034747,    4.5677042
    510, -0.344159961, -0.627881169,   1.80800629
    511, -0.0838320404, -0.676358521,   2.19638467
    512, -0.496363282,  0.556052208,   2.38864684
    513, -0.0497907214,  0.759692609,   2.39992476
    514,    0.5915488,  0.419065744,   6.75363016
    515, -0.283321708, -0.330496788,  0.584720433
    516,  0.490102351,  0.232647285,   6.74593592
    517, -0.327859372, -0.541031301,  0.861450911
    518, -0.078475222, -0.489758283,  0.270489186
    519,  -0.27021414, -0.116638906,  0.316373944
    520,   0.66704607, -0.205501854,   4.02283812
    521,  0.460620165, -0.481983989,   4.31659412
    522,  0.656662345, -0.123731211,   2.66307855
    523,  0.759250998, -0.0244184751,   1.63003123
    524,  -0.53687036, -0.445653379,   2.58489561
    525, -0.0505520552, -0.677301228,   2.59886599
    526,   0.51613307, -0.463789195,   2.81944418
    527,  0.167406902, -0.591429949,   2.98789835
    528,  0.701085627, -0.0883485898,   3.71633697
    529,  0.471152872,  0.551365376,   4.43241787
    530, -0.526366889,  0.444633514,   6.40260601
    531, -0.231409281,  0.668216646,   6.13784885
    532, -0.285433233, -0.0270075351,   6.42192173
    533, -0.676757157, 0.0368347839,   6.45298862
    534,  -0.46851325, -0.0918342173,   6.75296593
    535, -0.399662644,  0.254300654,   6.75296593
    536, -0.357304335,  0.575594962,   3.22804594
    537,  -0.17164278,  0.685167253,   2.83004689
    538, -0.634061396,   0.43857038,   3.17959785
    539, -0.665573061,  0.478263348,   2.74467635
    540, 0.0403492376,  0.698332071,   3.34152031
    541,   0.61506623,   0.37899673,   5.22821712
    542, -0.600730419, -0.191700771,  0.524927318
    543, 0.0955668315, -0.191179335,  0.283109486
    544,  0.511004627, -0.187772185,  0.251125574
    545, -0.621626019, -0.344529748,  0.253216237
    546, 0.0643234178, -0.690050066,  0.522960365
    547, -0.687927902, 0.0852992758,    3.0717144
    548, -0.508433282, -0.393669546,   3.01441026
    549, -0.137615204,  0.457549989,   6.73321629
    550,  0.184651926,  0.637657881,   6.71211004
    551,  0.319920599,   0.47138077,   5.15987206
    552,  0.191808522, -0.279788643,   6.70747471
    553, -0.167375863, -0.354831904,   6.74786758
    554, -0.420371562, -0.151414067,   6.11696291
    555, -0.545238376, -0.442518026,   6.48167562
    556, -0.143615842, 0.0535716601,   6.71486807
    557, -0.410834759,  0.283788174,  0.245042458
    558, 0.0319847874,  0.283798814,   5.99069881
    559,  0.557460427,  0.348186105,   5.80806971
    560,  0.334740192,  0.576783299,   5.74558544
    561,  0.319149971,  0.631115854,   6.43477726
    562,  0.499558479,  0.392447948,   6.46910477
    563, -0.160685271,  0.399641812,   6.41150284
    564,   0.19674632,  0.112451807,   6.70639038
    565, -0.402498245,   0.23062712,    6.0162611
    566,  0.110702999,   0.68910563,   6.15572023
    567, -0.277316213, -0.629206061,   3.06587791
    568,  0.740446031, -0.0208166726,   1.31601989
    569, 0.0657777935,  0.464566499,   0.26342836
    570, -0.669187725,  0.202831641,  0.522036731
    571,  0.019410627, -0.687515557,    3.4589169
    572, -0.728387594, 0.0225934088,   6.04148293
    573,  0.494140923,  -0.20024924,   6.74477148
    574,  0.463038504,  0.465815127,   6.11851835
    575, -0.0379326642, -0.799429059,   3.26360512
    576, -0.599591315, -0.355431378,   3.48081374
    577, -0.684945583, -0.0908955261,     2.385185
    578,   -0.4713462,  -0.50751102,   6.77076864
    579, -0.138972029,  0.728681564,   1.74438524
*Element, type=C3D4
   1, 334, 335, 336, 337
   2, 334, 338, 339, 340
   3, 341, 334, 342, 343
   4, 344, 334, 342, 341
   5, 345, 335, 346, 334
   6, 334, 339, 338, 342
   7, 334, 347, 339, 336
   8, 348, 349, 350, 351
   9, 348, 350, 352, 353
  10, 354, 355, 335, 346
  11, 354, 356, 335, 357
  12, 346, 358, 334, 354
  13, 359, 360, 361, 125
  14, 334, 336, 339, 342
  15, 354, 362, 347, 336
  16, 354, 335, 362, 336
  17, 336, 354, 334, 347
  18, 363, 364, 365, 366
  19, 365, 367,  54, 324
  20, 366, 365,  53, 364
  21, 366,  54, 365, 367
  22, 366, 365,  54,  53
  23, 368, 369,  70, 366
  24, 351, 368, 369,  70
  25, 366, 367, 363, 369
  26, 348, 366, 368, 370
  27, 366,  68, 364,  69
  28, 184, 183, 371, 168
  29, 172, 372, 373, 374
  30, 330, 326,  50,  21
  31, 372, 374, 172, 156
  32, 375, 372, 335, 373
  33, 372, 376, 375, 377
  34, 372, 373, 376, 154
  35, 372, 335, 374, 377
  36, 257, 272, 378, 256
  37, 373, 172, 379, 171
  38, 380, 381, 382, 383
  39, 372, 373, 154, 170
  40, 372, 373, 170, 171
  41, 381, 382, 383, 384
  42, 385, 386, 387, 388
  43, 389, 388, 386, 273
  44, 389, 291, 390, 387
  45, 389, 289, 388, 273
  46, 290, 389, 289, 391
  47, 389, 289, 391, 388
  48, 392, 393, 394, 395
  49, 392, 394, 393, 396
  50, 392, 385, 395, 397
  51, 357, 335, 398, 356
  52, 392, 399, 393, 400
  53, 392, 401, 385, 397
  54, 402, 403, 404, 405
  55, 403, 406, 407, 408
  56, 409, 410, 411, 412
  57, 412, 413, 414, 410
  58, 412, 413, 415, 416
  59, 412, 413, 416, 414
  60, 375, 345, 417, 418
  61, 375, 345, 419, 417
  62, 375, 420, 421, 422
  63, 375, 419, 420, 422
  64, 375, 345, 377, 419
  65, 423, 424, 425, 352
  66, 423, 351, 350, 349
  67, 426, 427, 428, 423
  68, 335, 398, 356, 374
  69, 423, 350, 424, 352
  70, 429, 349, 430, 381
  71, 378, 431, 432, 433
  72, 359, 421, 434, 376
  73, 359, 435, 361, 436
  74, 359, 435, 436, 377
  75, 359, 421, 436, 437
  76, 359, 360, 421, 437
  77, 438, 150, 149, 134
  78, 359, 434, 421, 360
  79, 246, 439, 245, 440
  80, 439, 441, 245, 442
  81, 439, 245, 440, 442
  82, 441, 439, 443, 442
  83, 441, 444, 229, 445
  84, 441, 444, 245, 229
  85, 446,  73,  89,  88
  86, 348, 370, 368, 350
  87, 370,  68, 364, 366
  88, 368, 370,  84, 350
  89, 348, 369, 366, 363
  90, 348, 370, 350, 353
  91, 370, 447, 353, 448
  92, 370, 350, 353, 449
  93, 370, 447, 448,  67
  94, 370,  83, 447,  67
  95, 348, 450, 451, 353
  96, 368, 351, 350,  85
  97, 370, 350, 449,  84
  98, 370, 449, 353, 447
  99, 368, 370,  68,  84
 100, 452, 453, 316,   4
 101, 452, 453,   4,  34
 102, 454, 455, 456, 436
 103, 393, 457, 400, 458
 104, 392, 393, 399, 406
 105, 392, 393, 395, 400
 106, 393, 457, 395, 400
 107, 459, 449,  99, 424
 108, 411, 460, 461, 194
 109, 424, 449,  98, 462
 110, 350, 449, 424, 352
 111, 420, 463, 464, 437
 112, 465,  29,  30,  58
 113, 420, 463, 437, 466
 114, 420, 467, 463, 468
 115, 420, 467, 438, 463
 116, 420, 422, 469, 468
 117, 334, 346, 345, 344
 118, 347, 159, 362, 470
 119, 347, 354, 334, 358
 120, 354, 347, 470, 358
 121, 362, 354, 470, 356
 122, 347, 362, 175, 471
 123, 403, 408, 407, 405
 124, 392, 396, 472, 394
 125, 392, 396, 473, 472
 126, 403, 474, 475, 406
 127, 406, 476, 439, 399
 128, 406, 439, 475, 458
 129, 406, 408, 476, 431
 130, 406, 408, 431, 407
 131, 475, 477, 406, 458
 132, 406, 478, 477, 475
 133, 410, 413, 402, 479
 134, 412, 336, 416, 415
 135, 413, 416, 402, 480
 136, 413, 415, 416, 480
 137, 151, 481, 417, 422
 138, 413, 479, 482, 415
 139, 402, 410, 405, 414
 140, 483, 484, 438, 419
 141, 459, 464, 484, 483
 142, 485, 459, 464, 484
 143, 483, 427, 101, 459
 144, 483, 427, 463, 486
 145, 484, 132, 116, 438
 146, 483, 438, 118, 467
 147, 240, 224, 239, 487
 148, 240, 488, 225, 489
 149, 490,  44, 491, 308
 150, 492, 223, 224, 493
 151, 489, 410, 405, 479
 152, 489, 410, 494, 492
 153, 489, 408, 479, 405
 154, 488, 489, 476, 443
 155, 443, 489, 479, 494
 156, 489, 225, 494, 488
 157, 495, 388, 496, 391
 158, 495, 385, 497, 496
 159, 495, 498, 497, 499
 160, 495, 496, 500, 501
 161, 495, 388, 385, 496
 162, 389, 275, 390, 291
 163, 390, 399, 502, 503
 164, 390, 275, 504, 276
 165, 390, 491, 505, 387
 166, 390, 502, 277, 503
 167, 502, 400, 387, 505
 168, 388, 506, 288, 391
 169, 495, 506, 391, 501
 170, 305, 391, 304,  35
 171, 391, 304,  35, 506
 172, 507, 455, 383, 381
 173, 147, 508, 509, 146
 174,  35, 304,  17, 506
 175, 508, 130, 146, 145
 176, 506, 303,  17,  33
 177, 510, 439, 458, 475
 178, 458, 475, 264, 510
 179, 477, 458, 475, 264
 180, 510, 475, 264, 248
 181, 510, 475, 248, 474
 182, 510, 440, 262, 458
 183, 439, 408, 474, 479
 184, 439, 408, 406, 474
 185, 444, 441, 245, 439
 186, 145, 161, 508, 470
 187, 439, 476, 408, 443
 188, 439, 443, 408, 479
 189, 441, 443, 445, 227
 190, 406, 474, 475, 439
 191, 435, 141, 157, 156
 192, 439, 511, 479, 474
 193, 489, 479, 494, 410
 194, 405, 403, 404, 407
 195, 405, 512, 414, 513
 196, 403, 396, 478, 404
 197, 405, 487, 407, 513
 198, 479, 410, 405, 402
 199, 514,  48, 320,  19
 200, 388, 387, 385, 496
 201, 389, 387, 388, 391
 202, 388, 385, 386, 433
 203, 388, 432, 385, 433
 204, 505, 515, 400, 496
 205, 505, 277, 502, 278
 206, 389, 387, 390, 386
 207, 516, 326, 330, 333
 208, 505, 496, 400, 387
 209, 517, 279, 295, 294
 210, 278, 505, 517, 502
 211, 514, 330, 516,  49
 212, 518,  39, 519,  42
 213, 520, 346, 521, 508
 214, 387, 399, 385, 400
 215, 499, 302, 301, 286
 216, 277, 440, 503, 502
 217, 502, 458, 400, 457
 218, 390, 504, 386, 399
 219, 479, 482, 522, 410
 220, 441, 443, 439, 444
 221, 408, 405, 487, 407
 222, 479, 522, 445, 443
 223, 253, 237, 252, 407
 224, 253, 407, 487, 513
 225, 407, 405, 512, 404
 226, 459, 116, 100, 101
 227, 403, 408, 405, 402
 228, 396, 252, 251, 407
 229, 392, 473, 407, 431
 230, 396, 473, 268, 407
 231, 405, 407, 512, 513
 232, 487, 513, 238, 253
 233, 441, 444, 445, 443
 234, 441, 443, 227, 243
 235, 476, 523, 488, 443
 236, 442, 504, 260, 503
 237, 442, 504, 523, 259
 238, 442, 260, 504, 259
 239, 474, 402, 524, 525
 240, 520, 521, 344, 164
 241, 522, 443, 227, 445
 242, 479, 522, 482, 526
 243, 522, 461, 482, 526
 244, 522, 410, 482, 411
 245, 444, 511, 246, 230
 246, 245, 439, 246, 444
 247, 479, 482, 415, 527
 248, 479, 525, 444, 445
 249, 408, 431, 407, 487
 250, 444, 230, 525, 511
 251, 229, 525, 445, 444
 252, 499, 302, 271, 287
 253, 339, 358, 528, 460
 254, 334, 340, 339, 528
 255, 347, 471, 339, 336
 256, 339, 482, 342, 336
 257, 334, 335, 337, 418
 258, 334, 342, 338, 344
 259, 347, 358, 177, 161
 260, 347, 177, 460, 471
 261, 347, 336, 362, 471
 262, 347, 358, 460, 177
 263, 358, 161, 508, 162
 264, 529, 143, 456, 127
 265, 161, 508, 470, 358
 266, 443, 488, 226, 242
 267, 499, 286, 301, 285
 268, 530, 531,  77,  61
 269, 441, 442, 443, 243
 270, 441, 227, 445, 228
 271, 443, 523, 488, 242
 272, 532, 533, 534, 535
 273, 413, 479, 410, 482
 274, 479, 410, 522, 494
 275, 522, 211, 445, 227
 276, 441, 445, 229, 228
 277, 489, 408, 405, 487
 278, 523, 442, 443, 476
 279, 503, 440, 442, 399
 280, 479, 444, 443, 445
 281, 489, 476, 408, 431
 282, 479, 494, 522, 443
 283, 412, 482, 471, 336
 284, 412, 482, 413, 410
 285, 405, 410, 493, 414
 286, 412, 416, 536, 537
 287, 410, 493, 409, 492
 288, 489, 410, 492, 493
 289, 482, 412, 471, 411
 290, 208, 492, 411, 409
 291, 492, 411, 409, 410
 292, 538, 416, 539, 536
 293, 142, 357, 435, 158
 294, 539, 480, 219, 404
 295, 512, 537, 220, 539
 296, 412, 409, 410, 414
 297, 194, 522, 461, 411
 298, 482, 411, 460, 461
 299, 482, 336, 415, 342
 300, 413, 480, 402, 415
 301, 522, 410, 411, 494
 302, 412, 409, 540, 471
 303, 411, 412, 471, 409
 304, 334, 335, 354, 336
 305, 357, 435, 398, 377
 306, 354, 362, 335, 356
 307, 335, 336, 374, 362
 308, 374, 379, 189, 336
 309, 379, 189, 336, 536
 310, 376, 153, 137, 138
 311, 536, 379, 189, 188
 312, 536, 379, 188, 538
 313, 206, 540, 205, 537
 314, 113,  98,  97, 541
 315, 540, 205, 537, 536
 316, 492, 209, 494, 225
 317, 493, 207, 513, 409
 318, 492, 207, 409, 208
 319, 224, 493, 489, 492
 320, 414, 410, 493, 409
 321, 492, 411, 494, 209
 322, 489, 405, 410, 493
 323, 515, 517, 312, 311
 324, 542, 517, 312, 515
 325, 543,  46, 544,  44
 326, 515, 545, 519, 518
 327, 515, 518, 312, 545
 328, 515, 546, 517, 311
 329, 515, 543, 518, 519
 330, 515, 497, 542, 395
 331, 203, 538, 187, 547
 332, 480, 512, 416, 402
 333, 379, 186, 547, 337
 334, 350, 459, 101, 427
 335, 359, 125, 141, 140
 336, 540, 336, 362, 189
 337, 379, 374, 373, 337
 338, 171, 372, 373, 172
 339, 379, 374, 188, 172
 340, 512, 404, 480, 539
 341, 480, 415, 548, 524
 342, 416, 336, 337, 415
 343, 547, 539, 538, 416
 344, 416, 480, 415, 547
 345,  95, 380, 110, 126
 346, 413, 402, 416, 414
 347, 539, 512, 416, 480
 348, 334, 358, 520, 528
 349, 334, 528, 339, 358
 350, 520, 346, 358, 334
 351, 334, 344, 520, 346
 352, 334, 345, 418, 341
 353, 335, 345, 346, 377
 354, 530, 549,  61,  60
 355, 358, 346, 355, 354
 356, 477, 280, 265, 281
 357, 512, 220, 235, 539
 358, 422, 153, 152, 137
 359, 372, 374, 335, 373
 360, 319,  62,  18, 550
 361, 375, 345, 335, 377
 362, 440, 246, 262, 261
 363, 381, 429, 349, 384
 364, 377, 345, 346, 419
 365, 358, 347, 339, 334
 366, 436, 361, 437, 455
 367, 142, 435, 357, 361
 368, 436, 361, 456, 357
 369, 359, 125, 361, 141
 370, 359, 155, 377, 376
 371, 435, 157, 374, 156
 372, 156, 435, 140, 155
 373, 372, 156, 435, 374
 374, 520, 508, 146, 162
 375, 520, 508, 147, 146
 376, 447,  65, 448,  66
 377, 358, 346, 520, 508
 378, 521, 132, 133, 148
 379, 354, 357, 335, 355
 380, 358, 162, 520, 528
 381, 520, 147, 521, 148
 382, 424, 425,  98, 114
 383, 424, 485, 114, 115
 384, 485, 509, 114, 130
 385, 485, 509, 484, 464
 386, 484, 459, 116, 485
 387, 435, 142, 157, 141
 388, 485, 509, 130, 131
 389, 485, 459, 116, 115
 390, 455, 360, 507, 125
 391, 394, 472, 397, 268
 392, 455, 383, 126, 125
 393, 435, 372, 155, 156
 394, 345, 417, 481, 419
 395, 345, 346, 419, 521
 396, 375, 417, 419, 422
 397, 412, 415, 482, 336
 398, 479, 525, 527, 415
 399, 516, 320, 328, 333
 400, 334, 341, 418, 343
 401, 375, 419, 377, 421
 402, 336, 536, 189, 540
 403, 354, 355, 470, 357
 404, 423, 427, 350, 351
 405, 379, 337, 336, 374
 406, 425, 464, 424, 423
 407, 424, 459, 463, 464
 408, 423, 381, 437, 430
 409, 434, 139, 138, 123
 410, 423, 463, 428, 430
 411, 481, 150, 469, 151
 412, 438, 132, 116, 117
 413, 423, 424, 427, 463
 414, 483, 463, 427, 459
 415, 381, 425, 462, 352
 416, 551, 381, 425, 462
 417, 350, 352, 353, 449
 418, 424, 427, 463, 459
 419, 427, 423, 350, 424
 420, 366, 369,  70, 367
 421, 368, 351,  86,  70
 422, 363, 552, 553, 365
 423, 369, 554, 446,  72
 424, 369, 426,  71,  72
 425, 369, 349, 446, 554
 426, 348, 363, 450, 532
 427, 368, 351,  85,  86
 428, 369, 554,  72, 555
 429, 364, 348, 451, 370
 430, 363, 451, 552, 364
 431, 348, 351, 369, 349
 432, 348, 370, 353, 451
 433, 553, 363, 556, 552
 434, 369, 555, 532, 554
 435, 155, 435, 359, 377
 436, 377, 421, 419, 436
 437, 377, 372, 155, 435
 438, 420, 421, 434, 437
 439, 421, 419, 464, 420
 440, 420, 464, 463, 419
 441, 437, 421, 434, 360
 442, 421, 434, 376, 422
 443, 381, 360, 507, 455
 444, 359, 436, 361, 437
 445, 455, 361, 142, 456
 446, 436, 419, 464, 421
 447, 551, 425, 436, 454
 448, 357, 361, 456, 142
 449, 419, 377, 355, 346
 450, 464, 421, 437, 436
 451, 456, 355, 454, 436
 452, 424, 485, 425, 114
 453, 463, 437, 423, 464
 454, 521, 149, 148, 133
 455, 423, 349, 430, 426
 456, 370, 366, 364, 348
 457, 350, 427, 101, 351
 458, 350, 427, 424, 459
 459, 434, 376, 422, 137
 460, 515, 519, 497, 496
 461, 521, 133, 438, 149
 462, 557, 497, 519, 500
 463, 497, 300, 397, 301
 464, 497, 499, 301, 397
 465, 495, 499, 497, 385
 466, 435, 141, 156, 140
 467, 401, 397, 499, 385
 468, 497, 395, 496, 385
 469, 515, 395, 400, 496
 470, 298, 395, 542, 397
 471, 395, 542, 297, 298
 472, 395, 385, 400, 496
 473, 102, 427, 486, 351
 474, 102, 351,  87,  86
 475, 350, 449, 100, 459
 476, 351, 486, 103, 426
 477, 423, 351, 426, 427
 478, 455, 437, 381, 360
 479, 423, 463, 430, 437
 480, 455, 381, 437, 551
 481, 381, 384, 349, 558
 482, 349, 430, 381, 423
 483, 464, 437, 423, 425
 484, 463, 420, 419, 438
 485, 483, 486, 118, 102
 486, 360, 123, 124, 139
 487, 376, 138, 154, 153
 488, 423, 427, 428, 463
 489, 427, 428, 463, 486
 490, 352, 558, 559, 560
 491, 377, 436, 419, 355
 492, 436, 357, 456, 355
 493, 420, 463, 466, 468
 494, 423, 464, 424, 463
 495, 469, 467, 438, 420
 496, 381, 437, 551, 425
 497, 346, 377, 355, 335
 498, 359, 376, 139, 155
 499, 420, 421, 422, 434
 500, 381, 437, 430, 360
 501, 434, 138, 376, 137
 502, 454, 425, 464, 509
 503, 268, 394, 267, 283
 504, 114, 113, 509, 425
 505, 111, 455, 127, 454
 506, 450, 561, 550, 562
 507, 450, 563, 556, 549
 508, 450, 550, 564, 562
 509, 450, 451, 353, 562
 510, 363, 532, 555, 553
 511, 348, 450, 558, 532
 512, 348, 349, 369, 554
 513,  87,  71,  86, 351
 514, 424, 352, 449, 462
 515, 349, 429, 565, 384
 516, 427, 351, 426, 486
 517, 423, 426, 430, 428
 518, 349, 430, 446, 429
 519, 349, 554, 558, 565
 520, 449, 462,  82,  98
 521, 447, 353, 448,  65
 522, 447, 559,  81,  82
 523, 449,  82, 462, 559
 524, 348, 554, 369, 532
 525, 370,  83, 449, 447
 526,   2, 319,  62,  18
 527, 561,  62, 566, 563
 528, 550,  48, 562, 561
 529, 450, 550, 563, 549
 530, 550, 562, 516, 564
 531, 550, 328, 564, 516
 532, 550, 320,  18, 319
 533, 550, 549, 328, 319
 534, 444, 229, 525, 230
 535, 525, 511, 230, 231
 536, 525, 415, 567, 527
 537, 511, 525, 474, 231
 538, 525, 215, 567, 524
 539, 442, 260, 245, 503
 540, 390, 276, 504, 503
 541, 504, 568, 259, 275
 542, 504, 503, 276, 260
 543, 433, 385, 399, 392
 544, 392, 407, 406, 431
 545, 399, 400, 387, 502
 546, 393, 458, 477, 457
 547, 393, 458, 400, 399
 548, 362, 174, 190, 189
 549, 399, 390, 387, 386
 550, 390, 491, 291, 292
 551, 501, 391, 496, 544
 552, 391, 495, 388, 506
 553, 495, 500, 498, 569
 554, 497, 395, 385, 397
 555, 515, 400, 395, 517
 556, 515, 543, 496, 546
 557, 495, 391, 496, 501
 558, 546, 496, 505, 491
 559, 496, 501, 544, 543
 560, 495, 385, 388, 499
 561, 398, 158, 157, 435
 562, 379, 186, 373, 187
 563, 495, 569, 501, 500
 564, 468, 121, 137, 136
 565, 392, 433, 385, 401
 566, 496, 505, 491, 387
 567, 390, 502, 505, 277
 568, 395, 517, 457, 281
 569, 515, 517, 395, 542
 570, 262, 440, 278, 458
 571, 497, 397, 570, 542
 572, 400, 387, 496, 385
 573, 335, 373, 337, 418
 574, 417, 167, 418, 481
 575, 343, 341, 571, 342
 576, 341, 481, 165, 344
 577, 341, 571, 183, 343
 578, 381, 429, 507, 360
 579, 551, 437, 436, 425
 580, 429, 446,  90, 430
 581, 463, 486, 428, 467
 582, 430, 429, 360, 106
 583, 434, 437, 466, 420
 584, 466, 428, 463, 430
 585, 572,  76,  75, 530
 586, 572, 446,  73,  89
 587, 454, 425, 541, 551
 588, 572, 446, 429, 565
 589,  91,  76,  75, 572
 590, 572,  73, 554, 533
 591, 572,  90, 446,  89
 592, 348, 450, 353, 558
 593, 450, 558, 532, 563
 594, 363, 451, 450, 552
 595, 451, 552, 573, 564
 596, 363, 532, 553, 556
 597, 348, 368, 351, 350
 598, 450, 558, 563, 566
 599, 370, 451, 448, 353
 600,  68, 368, 366, 370
 601, 451, 552, 364, 573
 602, 363, 556, 552, 450
 603, 348, 349, 554, 558
 604, 450, 564, 451, 562
 605, 353, 562, 448,  65
 606, 447, 559, 353,  65
 607, 447, 559,  65,  81
 608, 370, 451, 364, 448
 609, 370, 364,  68,  67
 610, 450, 451, 564, 552
 611, 558, 531, 565, 563
 612, 450, 566, 563, 561
 613, 349, 565, 446, 554
 614, 349, 430, 426, 446
 615, 521, 164, 149, 165
 616, 451, 353, 562, 448
 617, 429, 507, 107, 108
 618, 530, 565, 572,  76
 619, 565, 530, 531,  76
 620, 369, 446, 349, 426
 621, 572, 565, 554, 446
 622, 558, 563, 566, 531
 623, 429, 565,  92,  91
 624, 563, 532, 535, 530
 625, 563, 530,  61, 531
 626, 565, 563, 530, 532
 627, 349, 558, 384, 565
 628, 450, 563, 532, 556
 629, 563, 531,  61,  62
 630, 151, 422, 136, 469
 631, 363, 532, 369, 555
 632, 565, 533, 532, 530
 633, 563, 549, 535, 556
 634, 451, 562, 516, 448
 635, 352, 353, 559, 558
 636, 574,  64,  79,  63
 637, 450, 564, 549, 556
 638, 352, 381, 349, 558
 639, 541,  98,  97, 462
 640, 462, 559,  82,  81
 641,  81, 462,  96,  97
 642, 348, 558, 554, 532
 643, 449, 447,  83,  82
 644, 307, 544,  36,  13
 645, 307, 391, 306, 544
 646, 496, 543, 544, 491
 647, 544,  37, 491,  44
 648, 544, 491,  37,  13
 649, 491, 391, 496, 387
 650, 501,  36, 544,  46
 651, 571, 575, 567, 527
 652, 500,  45, 557,  34
 653, 567, 527, 415, 342
 654, 415, 342, 337, 548
 655, 339, 482, 336, 471
 656, 573, 364,  52, 325
 657, 573, 364,  51,  52
 658, 365, 325, 364, 552
 659, 347, 176, 160, 161
 660,  22, 326,  51, 325
 661, 326,  51, 325, 573
 662, 553, 331, 332, 327
 663, 552, 573, 333, 325
 664, 125, 455, 383, 507
 665, 359, 124, 139, 360
 666, 360, 507, 125, 124
 667, 360, 507, 108, 107
 668, 360, 507, 124, 108
 669, 316, 497, 300, 570
 670, 557, 570,  40, 519
 671, 452, 497, 500, 498
 672, 452, 301, 498, 317
 673, 570, 542, 314,  40
 674, 542, 397, 570, 298
 675, 570, 542, 298, 314
 676, 480, 547, 548, 415
 677, 437, 430, 360, 466
 678, 507, 383, 125, 109
 679, 108, 384, 429, 507
 680, 359, 360, 139, 434
 681, 437, 436, 425, 464
 682, 359, 437, 361, 360
 683, 507, 109, 384, 383
 684, 567, 575, 183, 199
 685, 481, 151, 166, 150
 686, 521, 438, 133, 132
 687, 465,  30, 322, 321
 688, 535, 321,  60,  59
 689, 535, 322, 534, 331
 690, 532, 554, 555, 533
 691, 535,  60, 530,  59
 692, 535,  60, 549, 530
 693, 563, 530, 535, 549
 694, 341, 571, 182, 183
 695, 343, 576, 337, 342
 696, 341, 343, 167, 418
 697, 343, 418, 576, 167
 698, 571, 567, 343, 342
 699, 571, 567, 183, 343
 700, 493, 223, 224, 487
 701, 522, 494, 411, 210
 702, 223, 207, 513, 493
 703, 403, 406, 475, 478
 704, 479, 526, 482, 527
 705, 522, 445, 211, 526
 706, 439, 476, 442, 399
 707, 525, 474, 231, 524
 708, 544, 491, 307, 391
 709, 501, 543,  46, 544
 710, 388, 387, 496, 391
 711, 470, 356, 143, 159
 712, 362, 470, 159, 356
 713, 358, 520, 162, 508
 714, 456, 355, 357, 470
 715, 335, 346, 334, 354
 716, 501,  41,  36,  46
 717, 465, 533,  58,  59
 718, 392, 397, 395, 394
 719, 517, 457, 280, 279
 720, 392, 401, 473, 431
 721, 477, 406, 458, 393
 722, 394, 283, 397, 282
 723, 557, 452, 453, 497
 724, 396, 393, 477, 394
 725, 299, 397, 570, 300
 726, 420, 419, 469, 422
 727, 469, 468, 422, 136
 728, 468, 466, 428, 463
 729, 468, 121, 428, 466
 730, 468, 428, 119, 467
 731, 468, 428, 120, 119
 732, 452, 317,   3,   4
 733, 540, 409, 206, 191
 734, 479, 444, 525, 511
 735, 411, 208, 409, 192
 736, 411, 471, 192, 409
 737, 409, 222, 537, 206
 738, 387, 291, 391, 389
 739, 388, 385, 432, 499
 740, 452, 453,  34, 557
 741, 401, 499, 285, 286
 742, 305,  35,  36, 391
 743,  15, 305,  35,  36
 744, 506, 495, 388, 287
 745, 287, 506, 288, 388
 746, 506, 391, 501,  35
 747, 483, 419, 464, 484
 748, 419, 346, 355, 484
 749, 418, 375, 373, 417
 750, 372, 373, 375, 376
 751, 531,  78, 566,  94
 752, 438, 134, 469, 150
 753, 453,  43, 570, 315
 754, 346, 484, 521, 509
 755, 406, 439, 458, 399
 756, 403, 577, 478, 475
 757, 577, 404, 219, 480
 758, 539, 512, 404, 235
 759, 439, 479, 511, 444
 760, 479, 527, 525, 526
 761, 343, 334, 337, 418
 762, 334, 345, 341, 344
 763, 341, 343, 183, 167
 764, 345, 418, 481, 417
 765, 347, 362, 354, 470
 766, 342, 343, 334, 337
 767, 418, 373, 576, 417
 768, 327, 552, 365, 553
 769, 514,  49,  48,  20
 770, 329, 553, 367, 578
 771, 553, 332, 578, 329
 772, 363, 365, 553, 367
 773, 553, 327, 324, 365
 774, 423, 349, 350, 352
 775, 351,  71,  86,  70
 776, 424, 485, 115, 459
 777, 352, 380, 558, 560
 778, 352, 353, 449, 559
 779, 430, 466, 105, 106
 780, 468, 120, 428, 121
 781, 428, 105, 466, 121
 782, 469, 119, 468, 120
 783, 352, 381, 558, 380
 784, 430, 426, 446, 428
 785, 428, 486, 103, 119
 786, 381, 360, 430, 429
 787, 428, 103, 426, 104
 788, 132, 131, 484, 116
 789, 160, 161, 470, 347
 790, 334, 340, 520, 344
 791, 520, 521, 346, 344
 792, 347, 362, 159, 175
 793, 334, 528, 520, 340
 794, 528, 178, 162, 163
 795, 528, 340, 179, 163
 796, 528, 179, 178, 163
 797, 539, 537, 220, 204
 798, 362, 175, 540, 190
 799, 334, 340, 344, 338
 800, 339, 338, 527, 461
 801, 335, 336, 337, 374
 802, 345, 346, 521, 344
 803, 375, 377, 376, 421
 804, 374, 172, 379, 373
 805, 576, 337, 342, 548
 806, 366, 365, 363, 367
 807, 423, 351, 349, 426
 808, 369, 367, 555,  72
 809, 363, 556, 450, 532
 810, 366,  70, 368,  69
 811, 428, 486, 426, 103
 812, 350, 351, 101,  85
 813,  92, 108, 384, 429
 814, 369, 367,  71,  70
 815, 426, 351,  87, 103
 816, 426,  72, 446,  88
 817, 450, 562, 353, 574
 818, 562, 514, 550, 516
 819, 562,  49, 448,  65
 820, 562, 574,  64,  65
 821, 562, 561,  64, 574
 822, 562, 514, 516,  49
 823, 469, 150, 135, 151
 824, 545, 542,  40, 314
 825, 545, 313, 542, 314
 826, 545,  40, 542, 519
 827,   7, 545, 314, 313
 828, 545,   8, 313,   7
 829, 545, 313,   8, 312
 830, 393, 406, 458, 399
 831, 403, 404, 478, 577
 832, 453, 570, 316, 315
 833, 478, 249, 475, 577
 834, 404, 250, 396, 478
 835, 478, 475, 249, 265
 836, 477, 478, 265, 475
 837, 491, 546, 309, 293
 838, 490, 491, 546, 309
 839, 391, 491, 307, 291
 840, 557,  40, 570,  43
 841, 306, 544,  36, 307
 842, 501, 543, 500,  41
 843, 501,  46, 543,  41
 844, 570, 557, 497, 519
 845, 506, 501, 569,  35
 846, 501, 569,  35,  41
 847, 403, 408, 402, 474
 848, 432, 270, 473, 431
 849, 476, 489, 378, 431
 850, 488, 476, 489, 378
 851, 396, 392, 407, 406
 852, 433, 431, 399, 476
 853, 397, 300, 285, 301
 854, 402, 404, 480, 512
 855, 489, 487, 405, 493
 856, 547, 415, 337, 548
 857, 452, 500, 557,  34
 858, 537, 416, 539, 512
 859, 404, 577, 234, 250
 860, 234, 404, 219, 577
 861, 512, 251, 236, 252
 862, 251, 407, 404, 396
 863, 478, 577, 404, 250
 864, 403, 402, 404, 577
 865, 412, 416, 336, 536
 866, 529, 456, 470, 355
 867, 346, 521, 484, 419
 868, 553, 327, 556, 331
 869, 552, 333, 564, 327
 870, 146, 508, 509, 130
 871, 470, 161, 160, 145
 872, 365, 327, 324, 325
 873, 450, 552, 564, 556
 874, 494, 488, 225, 226
 875, 392, 397, 394, 472
 876, 452, 497, 498, 301
 877, 339, 527, 482, 461
 878, 492, 411, 209, 208
 879, 224, 225, 492, 489
 880,  69, 368, 366,  68
 881, 483, 463, 438, 467
 882, 355, 454, 436, 464
 883, 424, 425, 485, 464
 884, 406, 431, 476, 399
 885, 406, 408, 439, 476
 886, 478, 477, 265, 396
 887, 511, 510, 474, 439
 888, 510, 264, 458, 263
 889, 474, 475, 249, 577
 890, 392, 401, 397, 472
 891, 543, 518,  42,  44
 892, 388, 433, 386, 432
 893, 543, 544, 491,  44
 894, 389, 274, 568, 275
 895, 432, 271, 286, 255
 896, 491,  44, 490, 543
 897, 392, 433, 401, 431
 898, 431, 270, 473, 487
 899, 388, 432, 271, 499
 900, 433, 399, 386, 476
 901, 495, 569, 506, 501
 902, 403, 577, 475, 474
 903, 404, 405, 512, 402
 904, 407, 252, 251, 512
 905, 577, 474, 233, 249
 906, 232, 474, 248, 233
 907, 547, 576, 337, 186
 908, 355, 358, 470, 508
 909, 343, 337, 576, 418
 910, 379, 188, 374, 189
 911, 416, 379, 547, 337
 912, 342, 341, 571, 344
 913, 525, 524, 567, 415
 914, 480, 416, 539, 547
 915, 412, 537, 536, 540
 916, 416, 414, 512, 537
 917, 360, 437, 466, 434
 918, 420, 421, 437, 464
 919, 448, 516, 451, 573
 920, 573, 326, 448, 516
 921, 567, 527, 575, 198
 922, 325, 364, 552, 573
 923, 350, 449,  84, 100
 924, 450, 574, 353, 558
 925, 576, 169, 168, 417
 926, 564, 556, 327, 328
 927, 564, 556, 328, 549
 928, 370,  67, 448, 364
 929, 447,  66, 448,  67
 930, 352, 423, 381, 425
 931, 424, 425, 462,  98
 932, 483, 459, 116, 484
 933, 430, 428, 105, 466
 934, 429, 507, 360, 107
 935, 532, 534, 533, 555
 936, 348, 352, 350, 349
 937, 384, 531,  94,  93
 938, 384, 383, 109, 382
 939, 507, 108, 384, 109
 940, 566, 382, 558, 384
 941, 558, 565, 531, 384
 942, 481, 165, 521, 149
 943, 344, 180, 338, 340
 944, 571, 344, 181, 338
 945, 520, 340, 528, 163
 946, 508, 346, 355, 358
 947, 553, 331, 556, 534
 948, 532, 556, 535, 534
 949, 514, 550, 516, 320
 950, 564, 333, 516, 328
 951, 553, 534, 332, 331
 952, 535, 556, 331, 534
 953, 535, 331, 556, 328
 954, 573, 516, 564, 333
 955, 261, 277, 440, 503
 956, 262, 246, 440, 510
 957, 458, 510, 263, 262
 958, 510, 246, 440, 439
 959, 477, 264, 475, 265
 960, 510, 511, 474, 247
 961, 440, 503, 245, 261
 962, 390, 277, 505, 293
 963, 522, 195, 526, 211
 964, 439, 443, 442, 476
 965, 213, 229, 525, 445
 966, 489, 431, 487, 378
 967, 527, 526, 197, 213
 968, 196, 526, 197, 461
 969, 360, 434, 123, 139
 970, 526, 197, 461, 527
 971, 492, 224, 208, 209
 972, 443, 494, 226, 488
 973, 496, 501, 543, 500
 974, 491, 387, 291, 391
 975, 495, 498, 499, 287
 976, 257, 273, 378, 272
 977, 397, 499, 385, 497
 978, 271, 499, 432, 286
 979, 436, 551, 454, 455
 980, 499, 287, 498, 302
 981, 483, 463, 459, 464
 982, 483, 427, 486, 102
 983,  87, 426,  71, 351
 984, 424, 425, 352, 462
 985, 369, 351, 426, 349
 986, 427, 101, 102, 483
 987, 351, 101, 102, 427
 988, 424, 464, 485, 459
 989, 424,  99, 459, 115
 990, 530, 531,  76,  77
 991, 321,  59,  30,  31
 992, 321, 535,  60, 549
 993, 396, 267, 394, 266
 994, 563,  61, 530, 549
 995, 368, 350,  84,  85
 996, 565, 532, 533, 554
 997, 565,  76, 531,  92
 998, 365,  25, 324,  54
 999, 365, 325,  24,  23
1000, 365,  52, 325,  23
1001, 552, 363, 364, 365
1002, 552, 564, 556, 327
1003, 365,  24, 324,  25
1004, 449, 353, 447, 559
1005, 365,  52, 364, 325
1006, 294, 278, 505, 517
1007, 505, 294, 517, 546
1008, 440, 278, 458, 502
1009, 457, 458, 263, 279
1010, 457, 458, 264, 263
1011, 389, 504, 275, 568
1012, 394, 472, 268, 396
1013, 279, 502, 278, 517
1014, 517, 280, 457, 281
1015, 477, 264, 457, 458
1016, 452, 500,  34, 569
1017, 392, 393, 406, 396
1018, 387, 502, 390, 399
1019, 497, 452, 316, 301
1020, 506, 287, 498, 495
1021, 480, 577, 217, 218
1022, 265, 396, 266, 478
1023, 538, 187, 547, 379
1024, 524, 217, 577, 233
1025, 480, 217, 524, 548
1026, 480, 548, 547, 217
1027, 547, 219, 218, 203
1028, 407, 268, 269, 473
1029, 525, 402, 524, 415
1030, 253, 268, 269, 407
1031, 407, 237, 513, 253
1032, 403, 474, 402, 577
1033, 407, 487, 431, 473
1034, 406, 396, 393, 477
1035, 489, 408, 487, 431
1036, 434, 137, 422, 466
1037, 348, 366, 364, 363
1038, 508, 146, 162, 161
1039, 378, 432, 272, 386
1040, 453, 497, 570, 557
1041, 369, 426,  72, 446
1042, 367,  56, 578, 555
1043, 366,  69, 364,  53
1044, 426,  71, 351, 369
1045, 268, 407, 252, 396
1046, 392, 433, 431, 399
1047, 396, 473, 472, 268
1048, 393, 477, 395, 457
1049, 407, 487, 473, 579
1050, 473, 432, 431, 401
1051, 485, 464, 425, 509
1052, 416, 379, 538, 547
1053, 455, 551, 454, 111
1054, 126, 380, 110, 383
1055, 454, 541, 113, 112
1056, 541, 551,  96, 112
1057, 349, 565, 429, 446
1058, 455, 381, 551, 380
1059, 454, 509, 464, 355
1060, 340, 164, 180, 179
1061, 514,  20, 330,  49
1062, 514, 320, 516, 330
1063, 562, 514,  49,  48
1064, 514, 330,  20,  19
1065, 329, 578,  56, 323
1066,  56, 329,  27,  55
1067, 578,  57, 534, 555
1068, 555, 534, 553, 532
1069, 367, 555,  72,  56
1070, 367,  55, 578,  56
1071, 367, 578,  55, 329
1072, 535,  59, 533, 465
1073, 558, 560, 380, 566
1074, 450, 558, 566, 574
1075, 563, 532, 556, 535
1076, 572, 554, 565, 533
1077, 565, 531, 384,  92
1078, 562,  64, 561,  48
1079, 561, 574,  63,  64
1080, 550, 514,  48, 320
1081, 563, 550, 561,  62
1082,  63,  47,  78, 566
1083, 566,  47,  78,  62
1084, 550, 549, 319,  62
1085, 578, 323, 534,  57
1086, 553, 534, 578, 332
1087, 578, 332, 534, 323
1088, 533,  57, 534,  58
1089, 572, 533,  74,  73
1090, 465, 534, 322,  58
1091, 535, 328, 556, 549
1092, 515, 496, 497, 395
1093, 304, 288, 506, 391
1094, 320,  47, 550,  18
1095, 557, 519,  40,  45
1096, 442, 399, 504, 503
1097, 433, 378, 431, 476
1098, 570, 298, 397, 299
1099, 431, 432, 433, 401
1100, 567, 342, 415, 548
1101, 362, 471, 540, 175
1102, 385, 399, 392, 400
1103, 505, 400, 515, 517
1104, 515, 496, 543, 519
1105, 518, 312, 545,  39
1106, 517, 542, 296, 297
1107, 296, 542, 517, 312
1108, 570, 519, 542,  40
1109, 545, 519,  39,  40
1110, 496, 546, 543, 491
1111, 472, 285, 269, 270
1112, 395, 281, 394, 282
1113, 395, 542, 517, 297
1114, 428, 467, 486, 119
1115, 426, 446, 104,  88
1116, 486, 119, 467, 118
1117, 572, 565, 429,  91
1118, 483, 486, 467, 118
1119, 483, 463, 419, 438
1120, 255, 431, 270, 432
1121, 348, 450, 363, 451
1122, 511, 231, 474, 247
1123, 502, 277, 440, 278
1124, 525, 215, 524, 231
1125, 508, 145, 146, 161
1126, 571, 567, 342, 527
1127, 525, 527, 213, 526
1128, 525, 213, 527, 214
1129, 440, 442, 399, 439
1130, 470, 357, 143, 356
1131, 456, 143, 357, 158
1132, 345, 481, 521, 419
1133, 454, 541, 425, 113
1134, 509, 146, 131, 147
1135, 505, 502, 390, 387
1136, 504, 260, 276, 275
1137, 386, 399, 385, 387
1138, 293, 390, 491, 505
1139, 526, 212, 211, 196
1140, 415, 479, 525, 402
1141, 411, 194, 210, 209
1142, 391, 306, 305, 290
1143, 360, 123, 434, 122
1144, 452, 569,  33, 498
1145, 442, 504, 476, 523
1146, 498, 506, 303, 287
1147, 411, 460, 193, 471
1148, 498,  33, 506, 569
1149, 495, 388, 287, 499
1150, 521, 131, 132, 147
1151, 521, 438, 132, 484
1152, 452,  33, 569,  34
1153, 501,  35, 391,  36
1154, 507, 124, 108, 109
1155, 455, 551,  95, 380
1156, 382, 384,  94, 109
1157, 385, 433, 399, 386
1158, 517, 457, 279, 502
1159, 520, 147, 163, 162
1160, 480, 547, 218, 217
1161, 408, 443, 489, 479
1162, 442, 259, 243, 244
1163, 579, 487, 270, 254
1164, 470, 145, 160, 144
1165, 529, 470, 144, 145
1166, 481, 521, 438, 149
1167, 516, 451, 573, 564
1168, 451, 516, 562, 564
1169, 100, 459, 449,  99
1170, 573, 448,  51, 364
1171, 330, 516,  50, 326
1172, 516,  50, 326, 448
1173, 448, 364,  67,  51
1174, 448, 516,  50,  49
1175, 562, 516, 448,  49
1176, 353, 562,  65, 574
1177, 454, 128, 112, 113
1178, 462, 559,  96, 560
1179, 455, 126,  95, 111
1180, 485, 115, 116, 131
1181, 380, 455, 126,  95
1182, 428, 119, 103, 104
1183, 470, 144, 160, 159
1184, 541, 551, 462,  96
1185, 529, 508, 509, 355
1186, 558, 384, 531, 566
1187, 558, 559, 560, 574
1188, 560, 566,  79, 380
1189, 560, 380,  79,  95
1190, 560, 380,  95,  96
1191, 359, 361, 435, 141
1192, 381, 429, 384, 507
1193, 462, 380, 560,  96
1194, 462, 425, 541,  98
1195, 457, 279, 264, 280
1196, 357, 377, 398, 335
1197, 435, 158, 157, 142
1198, 482, 342, 527, 339
1199, 361, 435, 357, 436
1200, 357, 356, 398, 158
1201, 529, 508, 355, 470
1202, 420, 466, 434, 422
1203, 334, 337, 336, 342
1204, 437, 361, 360, 455
1205, 456, 158, 127, 143
1206, 357, 356, 158, 143
1207, 452, 317, 498, 318
1208, 392, 407, 473, 396
1209, 497, 542, 570, 519
1210, 499, 498, 301, 302
1211, 395, 457, 477, 281
1212, 517, 311, 546, 295
1213, 477, 281, 457, 280
1214, 502, 399, 400, 458
1215, 356, 159, 174, 143
1216, 515, 518, 311, 312
1217, 547, 548, 576, 201
1218, 524, 548, 217, 216
1219, 567, 200, 548, 216
1220, 373, 576, 169, 185
1221, 576, 567, 200, 548
1222, 395, 282, 397, 298
1223, 480, 415, 524, 402
1224, 567, 415, 524, 548
1225, 100, 350, 459, 101
1226, 348, 366, 369, 368
1227, 325, 552, 365, 327
1228, 365,  53, 364,  52
1229, 553, 555, 367, 578
1230, 353, 559, 558, 574
1231,  94, 382, 566, 384
1232, 561, 566,  63, 574
1233, 566, 574,  79,  63
1234, 363, 555, 369, 367
1235, 531, 566,  78,  62
1236, 558, 574, 560, 566
1237, 563, 549,  62,  61
1238, 510, 474, 439, 475
1239, 529, 145, 144, 129
1240, 403, 407, 406, 396
1241, 408, 479, 402, 474
1242, 489, 488, 378, 240
1243, 454, 113, 509, 129
1244, 130, 146, 131, 509
1245, 524, 577, 474, 233
1246, 524, 233, 474, 232
1247, 524, 232, 474, 231
1248, 403, 406, 478, 396
1249, 560, 574,  80,  79
1250, 384, 531, 566,  94
1251, 481, 438, 469, 150
1252, 525, 567, 214, 527
1253, 510, 458, 439, 440
1254, 526, 213, 212, 197
1255, 527, 198, 213, 197
1256, 471, 409, 191, 192
1257, 527, 461, 338, 197
1258, 344, 180, 164, 165
1259, 341, 166, 481, 167
1260, 375, 373, 335, 418
1261, 472, 284, 269, 285
1262, 339, 461, 460, 340
1263, 525, 214, 567, 215
1264, 450, 563, 550, 561
1265, 550, 549, 564, 328
1266, 450, 561, 562, 574
1267, 550, 328, 516, 320
1268, 425, 541, 551, 462
1269, 514, 330,  19, 320
1270, 516, 330, 320, 333
1271, 552, 553, 327, 556
1272, 535, 328, 549, 321
1273, 559,  96,  80,  81
1274, 576, 417, 167, 418
1275, 471, 192, 176, 177
1276, 347, 471, 176, 177
1277, 347, 470, 160, 159
1278, 466, 137, 122, 434
1279, 339, 482, 460, 461
1280, 456, 143, 470, 357
1281, 345, 341, 344, 481
1282, 460, 193, 471, 177
1283, 467, 135, 134, 119
1284, 515, 542, 545, 312
1285, 505, 502, 400, 517
1286, 390, 276, 503, 277
1287, 490,  12,  44, 308
1288, 490, 491, 309, 308
1289, 458, 502, 278, 279
1290, 502, 457, 279, 458
1291, 505, 546, 293, 294
1292, 450, 564, 550, 549
1293, 465, 535, 322, 534
1294, 348, 352, 349, 558
1295, 384,  92, 531,  93
1296, 395, 281, 477, 394
1297, 499, 432, 286, 401
1298, 477, 265, 394, 281
1299, 288, 272, 287, 388
1300, 395, 394, 397, 282
1301, 285, 401, 270, 472
1302, 472, 397, 285, 401
1303, 392, 400, 395, 385
1304, 375, 422, 376, 417
1305, 481, 469, 422, 151
1306, 167, 418, 481, 341
1307, 373, 576, 337, 418
1308, 481, 151, 417, 167
1309, 417, 373, 169, 376
1310, 152, 153, 422, 417
1311, 554, 555,  73,  72
1312, 452, 497, 557, 500
1313, 570, 300, 315, 299
1314, 389, 274, 290, 289
1315, 271, 388, 287, 272
1316, 502, 400, 517, 457
1317, 121, 466, 137, 122
1318, 389, 568, 274, 273
1319, 511, 510, 246, 247
1320, 461, 180, 195, 179
1321, 517, 546, 294, 295
1322, 478, 577, 250, 249
1323, 420, 468, 469, 467
1324, 406, 396, 477, 478
1325, 477, 457, 264, 280
1326, 393, 394, 395, 477
1327, 502, 440, 503, 399
1328, 359, 377, 421, 376
1329, 354, 358, 470, 355
1330, 116, 438, 483, 484
1331, 341, 571, 344, 181
1332, 481, 150, 166, 165
1333, 374, 356, 174, 398
1334, 335, 377, 355, 357
1335, 346, 521, 508, 509
1336, 521, 165, 344, 164
1337, 394, 267, 282, 266
1338, 359, 140, 155, 139
1339, 434, 138, 122, 123
1340, 417, 169, 168, 153
1341, 469, 151, 135, 136
1342, 508, 509, 130, 129
1343, 529, 508, 129, 509
1344, 436, 419, 355, 464
1345, 425, 436, 454, 464
1346, 422, 152, 136, 137
1347, 529, 508, 470, 145
1348, 529, 508, 145, 129
1349, 521, 508, 509, 147
1350, 529, 456, 128, 127
1351, 116, 483, 101, 459
1352, 529, 456, 143, 470
1353, 529, 143, 127, 128
1354, 348, 351, 368, 369
1355, 362, 374, 356, 174
1356, 507, 124, 109, 125
1357, 541, 112,  96,  97
1358, 572,  91, 429,  90
1359, 551,  95,  96, 111
1360, 551, 112, 111,  96
1361, 377, 398, 335, 374
1362, 347, 176, 175, 160
1363, 454, 509, 529, 129
1364, 508, 130, 145, 129
1365, 341, 181, 344, 165
1366, 550, 563, 549,  62
1367, 520, 340, 163, 164
1368, 341, 571, 181, 182
1369, 338, 181, 197, 196
1370, 520, 528, 162, 163
1371, 152, 151, 422, 136
1372, 181, 575, 527, 197
1373, 202, 186, 201, 547
1374, 567, 343, 576, 183
1375, 527, 181, 338, 571
1376, 422, 137, 376, 153
1377, 377, 436, 355, 357
1378, 509, 114, 129, 113
1379, 521, 509, 131, 147
1380, 567, 524, 216, 548
1381, 567, 527, 198, 214
1382, 183, 567, 199, 371
1383, 571, 575, 182, 183
1384, 438, 467, 134, 118
1385, 412, 414, 416, 537
1386, 424, 115, 114,  99
1387, 183, 184, 371, 199
1388, 199, 184, 371, 200
1389, 381, 507, 384, 383
1390, 571, 567, 575, 183
1391, 463, 437, 466, 430
1392, 567, 524, 215, 216
1393, 374, 398, 173, 157
1394, 416, 536, 538, 379
1395, 529, 128, 144, 143
1396, 345, 481, 344, 521
1397, 469, 468, 136, 120
1398, 456, 357, 142, 158
1399, 468, 422, 137, 466
1400, 487, 224, 239, 223
1401, 579, 407, 487, 253
1402, 512, 513, 537, 414
1403, 512, 537, 237, 221
1404, 513, 409, 207, 222
1405, 396, 251, 267, 266
1406, 207, 492, 493, 223
1407, 416, 402, 512, 414
1408, 235, 251, 236, 512
1409, 472, 269, 284, 268
1410, 537, 221, 205, 206
1411, 204, 538, 203, 219
1412, 344, 340, 164, 180
1413, 537, 221, 206, 222
1414, 484, 346, 355, 509
1415, 529, 129, 144, 128
1416, 412, 536, 336, 540
1417, 419, 469, 422, 481
1418, 359, 376, 434, 139
1419, 454, 355, 529, 509
1420, 359, 141, 435, 140
1421, 455, 436, 551, 437
1422, 455, 142, 361, 126
1423, 430, 106, 360, 466
1424, 361, 141, 125, 126
1425, 352, 381, 380, 462
1426, 359, 140, 124, 125
1427, 435, 142, 141, 361
1428, 428, 120, 119, 104
1429, 347, 176, 161, 177
1430, 435, 140, 155, 359
1431, 455, 361, 125, 126
1432, 455, 127, 456, 142
1433, 375, 421, 420, 419
1434, 536, 537, 204, 205
1435, 511, 444, 246, 439
1436, 538, 203, 188, 204
1437, 347, 460, 339, 471
1438, 197, 181, 338, 527
1439, 509, 484, 464, 355
1440, 194, 461, 179, 460
1441, 460, 194, 178, 179
1442, 347, 176, 471, 175
1443, 522, 195, 210, 194
1444, 513, 238, 222, 207
1445, 410, 492, 411, 494
1446, 547, 202, 217, 201
1447, 513, 537, 409, 222
1448, 527, 198, 214, 213
1449, 480, 577, 524, 217
1450, 522, 494, 210, 226
1451, 547, 480, 219, 539
1452, 548, 216, 201, 217
1453, 513, 493, 409, 414
1454, 512, 537, 513, 237
1455, 480, 524, 577, 402
1456, 243, 523, 258, 259
1457, 242, 523, 258, 243
1458, 454, 529, 355, 456
1459, 405, 414, 512, 402
1460, 455, 142, 111, 127
1461, 236, 512, 220, 235
1462, 504, 386, 523, 568
1463, 444, 230, 246, 245
1464, 386, 523, 568, 257
1465, 544, 491, 391, 496
1466, 341, 165, 481, 166
1467, 504, 476, 386, 399
1468, 389, 504, 568, 386
1469, 238, 487, 254, 223
1470, 547, 548, 201, 217
1471, 386, 257, 568, 273
1472, 473, 579, 487, 270
1473, 412, 410, 411, 482
1474, 237, 222, 537, 513
1475, 439, 399, 440, 458
1476, 433, 386, 432, 378
1477, 257, 386, 378, 273
1478, 386, 378, 523, 257
1479, 396, 394, 267, 268
1480, 389, 386, 390, 504
1481, 409, 192, 207, 191
1482, 157, 398, 435, 374
1483, 431, 378, 255, 487
1484, 479, 522, 526, 445
1485, 396, 252, 268, 267
1486, 253, 269, 254, 579
1487, 483, 419, 463, 464
1488, 270, 472, 473, 269
1489, 237, 252, 407, 512
1490, 142, 126, 141, 361
1491, 379, 416, 336, 337
1492, 268, 472, 397, 284
1493, 572,  74,  89,  73
1494, 578, 329, 332, 323
1495, 113, 509, 425, 454
1496, 578, 555, 534, 553
1497, 553, 367, 365, 324
1498, 339, 460, 528, 340
1499, 398, 173, 157, 158
1500, 356, 174, 398, 158
1501, 374, 157, 173, 172
1502, 379, 187, 171, 172
1503, 374, 173, 398, 174
1504, 174, 158, 173, 398
1505, 379, 187, 547, 186
1506, 538, 203, 187, 188
1507, 547, 203, 218, 202
1508, 335, 356, 362, 374
1509, 168, 417, 167, 576
1510, 417, 153, 168, 152
1511, 374, 188, 172, 173
1512, 547, 217, 202, 218
1513, 372, 376, 377, 155
1514, 412, 336, 471, 540
1515, 373, 169, 154, 170
1516, 375, 335, 345, 418
1517, 420, 422, 468, 466
1518, 536, 204, 538, 188
1519, 415, 482, 342, 527
1520, 536, 204, 189, 205
1521, 355, 484, 464, 419
1522, 416, 547, 415, 337
1523, 346, 508, 355, 509
1524, 483, 486, 463, 467
1525, 131, 484, 116, 485
1526, 379, 188, 538, 187
1527, 463, 428, 468, 467
1528, 133, 132, 438, 117
1529, 571, 342, 344, 338
1530, 483, 102, 118, 117
1531, 454, 529, 128, 129
1532, 485, 509, 425, 114
1533, 540, 205, 190, 206
1534, 372, 374, 435, 377
1535, 374, 189, 188, 173
1536, 417, 152, 168, 167
1537, 568, 259, 275, 274
1538, 567, 198, 575, 199
1539, 504, 259, 568, 523
1540, 524, 231, 216, 232
1541, 479, 511, 525, 474
1542, 354, 357, 470, 356
1543, 513, 493, 487, 223
1544, 568, 273, 258, 274
1545, 442, 259, 244, 260
1546, 442, 243, 259, 523
1547, 512, 236, 221, 237
1548, 571, 527, 342, 338
1549, 412, 540, 409, 537
1550, 378, 257, 256, 241
1551, 454, 541, 112, 551
1552, 455, 127, 454, 456
1553, 540, 175, 191, 206
1554, 371, 200, 184, 185
1555, 537, 221, 220, 205
1556, 537, 220, 204, 205
1557, 117, 438, 483, 116
1558, 515, 311, 518, 546
1559, 524, 402, 474, 577
1560, 441, 228, 243, 227
1561, 378, 488, 241, 240
1562, 378, 240, 241, 256
1563, 523, 243, 443, 442
1564, 378, 523, 242, 488
1565, 577, 218, 233, 217
1566, 404, 219, 235, 234
1567, 468, 120, 121, 136
1568, 489, 476, 443, 408
1569, 242, 378, 241, 257
1570, 361, 436, 456, 455
1571, 438, 420, 419, 469
1572, 405, 513, 493, 487
1573, 533,  74,  73,  58
1574, 521, 419, 438, 484
1575, 439, 479, 444, 443
1576, 344, 338, 180, 181
1577, 572,  74,  75,  90
1578, 510, 248, 263, 247
1579,  33, 506, 303, 498
1580, 408, 479, 405, 402
1581, 372, 154, 376, 155
1582, 429, 565, 384,  92
1583, 434, 122, 138, 137
1584, 270, 255, 239, 487
1585, 345, 418, 341, 481
1586,  16,  15, 305,  35
1587, 494, 210, 225, 209
1588, 483, 118, 438, 117
1589, 488, 378, 241, 242
1590, 272, 378, 256, 432
1591, 495, 496, 497, 500
1592, 441, 228, 229, 244
1593, 185, 200, 576, 371
1594, 515, 518, 543, 546
1595, 521, 164, 148, 149
1596, 376, 155, 154, 139
1597, 394, 282, 281, 266
1598, 469, 468, 119, 467
1599, 481, 521, 419, 438
1600, 481, 150, 165, 149
1601, 469, 150, 134, 135
1602, 518,  44,  38,  42
1603, 577, 249, 233, 234
1604, 153, 422, 417, 376
1605, 356, 174, 158, 143
1606, 490,  38, 518,  44
1607, 362, 190, 159, 175
1608, 251, 404, 250, 396
1609, 543,  44, 490, 518
1610, 380, 566, 382, 558
1611, 518, 543, 546, 490
1612, 201, 185, 200, 576
1613, 439, 511, 510, 246
1614, 334, 345, 335, 418
1615, 525, 230, 214, 215
1616, 318,  33,   3,   1
1617, 568, 259, 258, 523
1618, 370,  84, 449,  83
1619, 461, 180, 196, 195
1620, 535, 321, 331, 328
1621, 452,  34,   4,   3
1622, 465, 321,  59,  30
1623, 380,  94, 382, 566
1624, 500,  41,  45,  34
1625, 531,  93,  77,  78
1626, 553, 329, 324, 332
1627, 566,  78,  63,  94
1628, 566,  79, 380,  94
1629, 371, 567, 199, 200
1630, 538, 539, 219, 204
1631, 487, 270, 254, 239
1632, 450, 561, 574, 566
1633, 448,  50, 326,  51
1634, 569,  41,  33,  35
1635, 569,  41,  34,  33
1636, 506,  35,  33,  17
1637, 516,  49, 330,  50
1638, 565,  92,  91,  76
1639, 341, 183, 182, 167
1640, 483, 102, 117, 101
1641, 552, 333, 573, 564
1642, 559, 560,  80,  96
1643, 424,  98, 449,  99
1644, 223, 513, 238, 487
1645, 189, 336, 362, 374
1646, 363, 348, 451, 364
1647, 396, 252, 267, 251
1648, 547, 576, 548, 337
1649, 443, 227, 242, 226
1650, 578, 323,  57,  56
1651, 573, 448, 326,  51
1652, 550, 320, 319, 328
1653, 505, 491, 293, 546
1654, 401, 499, 397, 285
1655, 557,  43,  45,  40
1656, 549, 321, 328, 319
1657, 534, 331, 322, 332
1658,   7,   6, 314,  40
1659,  18,  19, 320,  47
1660, 384,  94, 109,  93
1661, 519,  45,  42,  40
1662, 368,  85,  84,  69
1663, 451, 448, 573, 364
1664, 308,  37,  12,  44
1665, 578, 555,  56,  57
1666, 477, 265, 280, 264
1667, 473, 269, 579, 270
1668, 548, 576, 567, 342
1669, 224, 489, 487, 240
1670, 550, 562,  48, 514
1671, 504, 260, 275, 259
1672, 353,  65, 559, 574
1673, 394, 283, 282, 267
1674, 490,  10, 310,  38
1675,  13,  12, 308,  37
1676, 373, 170, 185, 169
1677, 549, 321,  61,  60
1678, 530,  61,  77,  76
1679,  61, 319, 321, 549
1680, 373, 185, 170, 186
1681,  13, 307,  14,  36
1682, 269, 254, 579, 270
1683, 452, 318,   3, 317
1684, 452, 317, 316, 301
1685, 498, 302, 317, 301
1686, 497, 452, 453, 316
1687, 311,  38,  39, 518
1688, 453, 315,   5,  43
1689, 570, 315,  43, 314
1690, 545,  40,  39,   7
1691, 570, 299, 314, 298
1692, 371, 168, 169, 184
1693, 315, 314,   6,  43
1694,  40,   7, 545, 314
1695, 390, 387, 291, 491
1696, 568, 273, 257, 258
1697, 542, 314, 313, 298
1698, 503, 261, 276, 260
1699, 545, 312,   8,  39
1700, 542, 515, 545, 519
1701, 545, 312, 542, 313
1702, 542, 297, 312, 296
1703,   9, 312, 311,  39
1704, 543, 518, 519,  42
1705, 517, 296, 312, 311
1706, 518, 310, 311,  38
1707, 576, 567, 342, 343
1708, 413, 479, 415, 402
1709, 311,  10,   9,  38
1710, 490, 546, 310, 309
1711, 546, 295, 310, 294
1712, 490,  44,  11,  38
1713,  12, 309, 490,  11
1714, 308, 307,  13, 491
1715, 544,  44,  46,  37
1716, 491, 308, 292, 293
1717,  13, 491,  37, 308
1718, 473, 407, 579, 269
1719, 452, 318,  33,   3
1720, 570, 315, 300, 316
1721, 491, 307,  13, 544
1722, 491, 292, 307, 291
1723, 391, 291, 306, 290
1724,  36, 307,  14, 306
1725,  36,  15, 305, 306
1726, 454, 529, 456, 128
1727, 485, 131, 130, 115
1728, 391, 290, 305, 289
1729, 391, 305, 304, 289
1730,  35,  16, 304, 305
1731, 495, 498, 506, 569
1732, 303, 498, 318,  33
1733, 506, 288, 303, 287
1734, 539, 536, 204, 538
1735, 506, 304,  17, 303
1736, 303, 318,   1,  33
1737, 452, 317,   4, 316
1738, 498, 318, 302, 287
1739, 183, 371, 168, 576
1740, 432, 378, 255, 431
1741, 397, 395, 542, 497
1742, 517, 296, 295, 280
1743, 498, 302, 318, 317
1744, 542, 313, 297, 298
1745, 499, 397, 285, 301
1746, 452, 498, 500, 569
1747, 515, 542, 497, 519
1748, 568, 274, 258, 259
1749, 169, 373, 417, 576
1750, 246, 247, 510, 262
1751, 396, 477, 265, 394
1752, 543,  41,  42,  45
1753, 314,   6,  43,  40
1754, 397, 298, 282, 283
1755, 519,  40,  42,  39
1756,  39,   8,   9, 312
1757, 545,   7,  39,   8
1758, 500, 519, 557,  45
1759, 517, 295, 296, 311
1760, 517, 296, 280, 281
1761, 496, 500, 543, 519
1762, 517, 279, 294, 278
1763, 395, 400, 457, 517
1764, 505, 278, 293, 277
1765, 543,  45, 500,  41
1766, 371, 184, 169, 185
1767, 390, 292, 291, 276
1768, 389, 291, 290, 275
1769,  43, 315,   5,   6
1770, 389, 273, 386, 568
1771, 389, 275, 290, 274
1772, 391, 305, 306,  36
1773, 388, 386, 273, 272
1774, 550,  18,  47,  62
1775, 272, 432, 271, 388
1776, 506,  35, 569,  33
1777, 446, 428, 105, 430
1778, 543, 519,  45,  42
1779, 389, 273, 274, 289
1780, 287, 498, 318, 303
1781,   9, 311,  38,  39
1782, 341, 167, 182, 166
1783, 389, 291, 391, 290
1784, 301, 497, 300, 316
1785, 518,  39, 311, 312
1786,  48,  47, 550, 320
1787, 386, 387, 388, 389
1788, 388, 289, 288, 273
1789, 371, 576, 169, 168
1790, 394, 266, 281, 265
1791, 490, 546, 518, 310
1792,   2,  61,  62, 319
1793, 518, 545, 519,  39
1794, 543, 519, 500,  45
1795, 446,  88,  72,  73
1796, 397, 299, 298, 283
1797, 395, 282, 297, 281
1798, 518, 546, 311, 310
1799, 514,  19,  20,  48
1800, 330,  21,  49,  20
1801, 570,  40, 314,  43
1802, 389, 504, 390, 275
1803, 561,  48,  64,  63
1804, 395, 298, 297, 282
1805, 491, 307, 292, 308
1806, 262, 510, 263, 247
1807, 505, 294, 293, 278
1808, 395, 297, 517, 281
1809, 366,  53,  54,  69
1810, 518,  39,  42,  38
1811, 385, 401, 433, 432
1812, 546, 294, 309, 293
1813, 531,  94,  93,  78
1814, 457, 279, 263, 264
1815, 546, 310, 309, 294
1816, 324,  25,  26,  54
1817, 552, 327, 325, 333
1818, 556, 328, 331, 327
1819, 502, 440, 399, 458
1820, 458, 279, 278, 263
1821, 491, 293, 309, 308
1822, 326,  22,  50,  21
1823, 440, 262, 277, 261
1824, 522, 443, 226, 227
1825, 390, 277, 292, 276
1826, 562,  49,  64,  48
1827, 244, 442, 260, 245
1828, 367,  71,  70,  55
1829, 291, 391, 306, 307
1830, 391, 544,  36, 306
1831, 550, 561,  47,  48
1832, 365,  25,  53,  24
1833,  47, 561, 566,  63
1834, 390, 503, 504, 399
1835, 573, 325, 326, 333
1836, 442, 440, 503, 245
1837, 491,  37, 308,  44
1838, 324, 329, 553, 367
1839, 452,   3,  33,  34
1840, 501, 391, 544,  36
1841, 391, 304, 288, 289
1842, 479, 525, 445, 526
1843, 506, 304, 303, 288
1844, 385, 432, 499, 401
1845, 330,  21,  50,  49
1846, 272, 386, 273, 378
1847, 365,  53,  52,  24
1848, 432, 378, 256, 255
1849, 568, 258, 257, 523
1850, 475, 249, 264, 248
1851, 417, 152, 167, 151
1852, 503, 277, 276, 261
1853, 448,  51,  66,  50
1854,  47,  62, 566, 561
1855, 478, 265, 249, 250
1856, 499, 388, 287, 271
1857, 284, 472, 397, 285
1858, 478, 265, 250, 266
1859, 549, 319,  62,  61
1860, 458, 278, 262, 263
1861, 326,  51,  50,  22
1862, 367,  70,  54,  55
1863, 452, 498,  33, 318
1864, 495, 500, 497, 498
1865, 449, 100,  99,  84
1866, 325,  51,  22,  23
1867, 253, 268, 407, 252
1868, 517, 281, 297, 296
1869, 370,  68,  84,  83
1870, 447,  67,  82,  66
1871, 501, 500, 569,  41
1872, 557,  43,  34,  45
1873, 453,  43,   5,   4
1874, 325,  52,  51,  23
1875, 530,  76,  75,  60
1876, 562,  65,  64,  49
1877, 343, 576, 183, 167
1878, 445, 211, 526, 212
1879, 445, 212, 526, 213
1880, 364,  68,  52,  53
1881, 448,  50,  66,  65
1882, 510, 263, 248, 264
1883, 489, 443, 488, 494
1884, 525, 445, 526, 213
1885, 364,  52,  68,  67
1886, 440, 262, 278, 277
1887, 403, 396, 404, 407
1888, 390, 293, 292, 277
1889, 542, 297, 313, 312
1890, 449,  98,  82,  83
1891, 257, 523, 242, 378
1892, 531,  77,  62,  78
1893, 390, 291, 275, 276
1894, 336, 362, 471, 540
1895, 324,  55,  54,  26
1896, 336, 337, 415, 342
1897, 540, 191, 471, 409
1898, 380, 558, 382, 381
1899, 376, 139, 154, 138
1900, 426,  87,  71,  72
1901, 510, 247, 474, 248
1902, 490, 309, 310,  11
1903, 386, 432, 272, 388
1904, 365,  23,  24,  52
1905, 388, 288, 272, 273
1906, 505, 515, 496, 546
1907, 540, 175, 471, 191
1908, 544,  37,  46,  36
1909, 365,  54,  53,  25
1910, 544,  37,  36,  13
1911, 407, 512, 513, 237
1912, 323, 329,  27,  56
1913, 432, 271, 255, 256
1914, 572, 533, 530,  75
1915, 487, 253, 254, 579
1916, 534, 323, 332, 322
1917, 572, 565, 530, 533
1918, 366,  54,  70,  69
1919, 504, 386, 476, 523
1920, 554, 555, 533,  73
1921, 512, 237, 252, 236
1922, 329,  55,  26,  27
1923, 432, 256, 272, 271
1924, 558, 532, 565, 554
1925, 258, 523, 242, 257
1926, 551, 462,  96, 380
1927, 200, 576, 371, 567
1928, 543,  42,  41,  46
1929, 397, 268, 283, 394
1930, 388, 391, 288, 289
1931, 517, 295, 279, 280
1932, 368,  70,  86,  85
1933, 240, 378, 487, 255
1934, 367,  56,  71,  55
1935, 323,  28,  56,  27
1936,  55, 578,  56, 329
1937, 321,  32,  60,  31
1938, 372, 170, 154, 155
1939, 567, 576, 371, 183
1940, 532, 534, 553, 556
1941, 447,  83,  82,  67
1942, 270, 432, 473, 401
1943, 475, 249, 265, 264
1944, 397, 300, 284, 285
1945, 322,  29,  57,  28
1946, 323,  57,  56,  28
1947, 555,  72,  56,  57
1948, 520, 521, 147, 508
1949, 253, 487, 254, 238
1950, 269, 407, 579, 253
1951, 434, 376, 138, 139
1952, 520, 162, 146, 147
1953, 161, 162, 358, 177
1954, 453,  34,  43,   4
1955, 396, 478, 250, 266
1956, 352, 559, 449, 462
1957, 404, 250, 235, 251
1958, 570, 299, 315, 314
1959, 572,  89,  74,  90
1960, 469, 467, 119, 135
1961, 533, 530,  75,  59
1962, 533,  73,  57,  58
1963, 565, 563, 531, 530
1964, 492, 225, 224, 209
1965, 249, 474, 233, 248
1966, 432, 401, 270, 286
1967, 511, 247, 246, 231
1968, 396, 251, 266, 250
1969, 534, 322,  57, 323
1970, 322,  58,  57,  29
1971, 454, 551, 112, 111
1972, 564, 328, 327, 333
1973, 533,  74,  58,  59
1974, 465,  30,  59,  58
1975, 543,  46,  44,  42
1976, 531,  77,  61,  62
1977, 308, 309, 490,  12
1978,  38, 310, 311,  10
1979, 470, 159, 143, 144
1980, 474, 248, 247, 232
1981, 411, 460, 194, 193
1982,  59, 321,  60,  31
1983, 530,  60,  75,  59
1984, 532, 530, 533, 535
1985, 488, 226, 242, 241
1986, 572,  90, 429, 446
1987, 360, 107, 123, 122
1988, 481, 149, 438, 150
1989, 465,  58, 533, 534
1990, 485, 484, 509, 131
1991, 445, 212, 227, 211
1992, 438, 118, 134, 133
1993, 319,  32,   2,  61
1994, 397, 570, 300, 497
1995, 371, 576, 185, 169
1996, 500,  34, 569,  41
1997, 448,  49,  50,  65
1998, 530,  60,  61,  76
1999, 321,  61,  60,  32
2000,  15,  14, 306,  36
2001, 440, 261, 245, 246
2002, 432, 255, 286, 270
2003, 364,  51,  52,  67
2004,  32,  61, 319, 321
2005, 561,  47,  48,  63
2006, 383, 125, 110, 126
2007, 465,  58, 322,  29
2008, 454, 128, 456, 127
2009,  70, 369, 351,  71
2010, 476, 442, 399, 504
2011,  90, 430, 106, 429
2012, 162, 358, 177, 528
2013, 422, 481, 417, 419
2014, 490, 543, 546, 491
2015, 487, 431, 270, 255
2016, 535, 331, 321, 322
2017,  64, 574,  80,  65
2018, 520, 148, 521, 164
2019, 335, 337, 373, 374
2020, 292, 293, 390, 491
2021, 465, 322,  30,  29
2022, 455, 126, 111, 142
2023, 448,  51,  67,  66
2024, 443, 242, 227, 243
2025, 444, 245, 229, 230
2026, 465, 534, 533, 535
2027, 255, 378, 256, 240
2028, 487, 239, 254, 223
2029, 429, 107, 360, 106
2030, 441, 244, 229, 245
2031, 364,  53,  69,  68
2032, 539, 404, 219, 235
2033, 476, 378, 523, 386
2034, 512, 407, 404, 251
2035, 488, 226, 241, 225
2036, 429, 108, 107,  92
2037, 474, 231, 232, 247
2038, 441, 245, 442, 244
2039,  76, 565, 572,  91
2040, 522, 226, 443, 494
2041, 481, 166, 151, 167
2042, 503, 261, 260, 245
2043, 480, 577, 218, 219
2044, 351, 102, 101,  86
2045, 426,  88,  87,  72
2046, 379, 373, 171, 187
2047, 530, 535,  59, 533
2048, 350, 459, 424, 449
2049, 392, 406, 399, 431
2050, 376, 373, 169, 154
2051, 555,  72,  57,  73
2052, 525, 231, 230, 215
2053, 481, 521, 165, 344
2054, 367,  71,  56,  72
2055, 465, 535, 321, 322
2056, 533, 534,  57, 555
2057, 350, 100,  84,  85
2058, 404, 250, 234, 235
2059, 577, 234, 250, 249
2060, 392, 401, 472, 473
2061, 445, 213, 229, 228
2062, 486, 103, 118, 102
2063, 425,  98, 114, 113
2064, 462,  81,  82,  97
2065, 546, 311, 310, 295
2066, 339, 461, 340, 338
2067, 329,  26,  55, 324
2068, 524, 231, 215, 216
2069, 102, 486, 103, 351
2070, 522, 211, 227, 226
2071, 501,  36,  41,  35
2072, 368,  84,  68,  69
2073, 363, 553, 555, 367
2074, 525, 214, 229, 213
2075, 461, 196, 338, 197
2076, 433, 386, 378, 476
2077, 241, 240, 488, 225
2078, 487, 493, 489, 224
2079, 576, 548, 200, 201
2080,  16,  35, 304,  17
2081, 474, 408, 406, 403
2082, 441, 442, 243, 244
2083, 373, 186, 170, 171
2084, 438, 469, 134, 467
2085,  62, 550, 561,  47
2086, 537, 536, 204, 539
2087, 454, 127, 111, 112
2088,  33, 303,  17,   1
2089, 513, 223, 238, 207
2090, 512, 221, 236, 220
2091, 480, 547, 219, 218
2092, 536, 416, 539, 537
2093, 513, 409, 537, 414
2094, 572,  75,  91,  90
2095, 284, 268, 283, 397
2096, 574,  64,  80,  79
2097, 447,  66,  81,  65
2098, 536, 379, 416, 336
2099, 370,  67,  68,  83
2100, 573, 325,  52,  51
2101, 368,  69,  70,  85
2102, 225, 492, 489, 494
2103, 269, 472, 473, 268
2104, 286, 285, 401, 270
2105, 426, 103,  87,  88
2106, 365, 324,  24, 325
2107, 566,  94,  63,  79
2108, 539, 235, 219, 220
2109, 435, 398, 377, 374
2110, 117, 116, 483, 101
2111, 522, 411, 194, 210
2112, 460, 461, 179, 340
2113, 577, 233, 218, 234
2114, 453, 316,   5, 315
2115, 567, 215, 214, 199
2116,  47,  19, 320,  48
2117, 321, 465,  59, 535
2118, 366, 367,  70,  54
2119, 559,  80,  65,  81
2120, 525, 214, 230, 229
2121, 567, 200, 215, 199
2122, 367, 324,  55,  54
2123, 456, 158, 142, 127
2124, 558, 382, 381, 384
2125, 435, 436, 377, 357
2126, 567, 199, 214, 198
2127, 461, 526, 195, 196
2128, 384,  93, 108,  92
2129, 429, 107, 106,  91
2130, 480, 402, 577, 404
2131, 541, 113, 112,  97
2132, 513, 238, 253, 237
2133, 522, 461, 526, 195
2134, 373, 187, 186, 171
2135, 248, 475, 249, 474
2136, 487, 255, 239, 240
2137, 445, 213, 228, 212
2138, 447,  66,  82,  81
2139, 553, 327, 332, 324
2140, 195, 194, 522, 461
2141, 322, 323,  28,  57
2142, 526, 196, 211, 195
2143, 411, 494, 209, 210
2144, 455, 381, 380, 383
2145, 441, 244, 243, 228
2146, 482, 461, 527, 526
2147, 424, 114,  98,  99
2148, 358, 528, 460, 177
2149, 497, 496, 519, 500
2150, 429, 106,  90,  91
2151, 533,  74,  59,  75
2152, 494, 226, 225, 210
2153, 492, 208, 223, 207
2154, 409, 222, 191, 207
2155, 402, 479, 525, 474
2156, 572, 554,  73, 446
2157, 422, 152, 417, 151
2158, 411, 194, 209, 193
2159, 339, 460, 482, 471
2160, 446,  90, 105,  89
2161, 461, 179, 340, 180
2162, 573, 516, 333, 326
2163, 161, 470, 347, 358
2164, 531,  93,  92,  77
2165, 559, 560, 574,  80
2166, 409, 192, 208, 207
2167, 460, 528, 179, 178
2168, 446,  88,  89, 104
2169, 367, 329,  55, 324
2170, 548, 216, 200, 201
2171, 449,  99,  83,  84
2172, 531,  76,  77,  92
2173, 497, 301, 499, 498
2174, 461, 338, 196, 180
2175, 539, 219, 204, 220
2176, 412, 537, 409, 414
2177, 489, 487, 240, 378
2178, 104, 428, 105, 446
2179, 348, 352, 558, 353
2180, 521, 484, 132, 131
2181, 558, 565, 532, 563
2182, 488, 476, 378, 523
2183, 522, 211, 210, 195
2184, 505, 517, 515, 546
2185, 158, 357, 435, 398
2186, 394, 396, 266, 265
2187, 473, 270, 401, 472
2188, 540, 190, 205, 189
2189, 219, 538, 203, 547
2190, 520, 148, 163, 147
2191,  98, 425, 541, 113
2192, 541, 462,  97,  96
2193, 351, 101,  85,  86
2194, 360, 122, 434, 466
2195, 524, 217, 233, 232
2196, 534, 322,  58,  57
2197, 359, 377, 436, 421
2198, 380,  95, 110,  79
2199, 560,  79, 566, 574
2200, 103, 351,  87, 102
2201, 105, 430, 106,  90
2202, 383, 380, 110, 382
2203, 560,  80,  96,  95
2204, 554, 446,  72,  73
2205, 348, 369, 363, 532
2206, 428, 426, 446, 104
2207, 486, 427, 428, 426
2208, 219, 577, 218, 234
2209, 359, 124, 360, 125
2210, 426, 103,  88, 104
2211, 560,  95,  79,  80
2212, 524, 232, 216, 217
2213, 449,  99,  98,  83
2214, 445, 212, 228, 227
2215, 429,  92, 107,  91
2216, 411, 209, 208, 193
2217, 372, 155, 171, 170
2218, 242, 523, 243, 443
2219, 575, 199, 198, 183
2220, 520, 164, 344, 340
2221, 551,  95, 380,  96
2222, 462,  82,  98,  97
2223, 380,  79, 110,  94
2224, 575, 197, 181, 182
2225, 513, 237, 222, 238
2226, 559,  81, 462,  96
2227, 454, 127, 112, 128
2228, 575, 198, 182, 183
2229, 352, 462, 560, 559
2230, 490,  38,  11,  10
2231, 575, 198, 197, 182
2232, 511, 231, 246, 230
2233, 481, 469, 438, 419
2234, 522, 226, 210, 211
2235, 459, 115,  99, 100
2236, 411, 192, 471, 193
2237, 360, 466, 106, 122
2238, 352, 560, 462, 380
2239, 339, 342, 527, 338
2240, 341, 166, 182, 181
2241, 382, 110, 109,  94
2242, 195, 194, 461, 179
2243, 350,  85, 101, 100
2244, 405, 493, 513, 414
2245, 383, 455, 126, 380
2246, 397, 299, 284, 300
2247, 512, 220, 537, 221
2248, 414, 413, 402, 410
2249, 468, 137, 422, 136
2250, 482, 460, 411, 471
2251, 375, 422, 421, 376
2252, 446,  89, 105, 104
2253, 140, 359, 124, 139
2254, 338, 196, 180, 181
2255, 425, 423, 381, 437
2256, 360, 107, 108, 123
2257, 571, 182, 575, 181
2258, 522, 411, 482, 461
2259, 428, 105, 120, 104
2260, 221, 237, 222, 537
2261, 461, 340, 338, 180
2262, 374, 156, 157, 172
2263, 460, 178, 193, 177
2264, 471, 176, 192, 191
2265, 459, 116, 115, 100
2266, 430, 446,  90, 105
2267, 362, 356, 159, 174
2268, 380,  94, 110, 382
2269, 360, 123, 108, 124
2270, 490,  11, 310,  10
2271, 533, 555,  57,  73
2272, 536, 188, 189, 204
2273, 467, 134, 118, 119
2274, 529, 470, 143, 144
2275, 485, 130, 114, 115
2276, 469, 135, 119, 120
2277, 173, 174, 374, 189
2278, 547, 203, 202, 187
2279, 381, 551, 380, 462
2280, 453, 557,  43,  34
2281, 251, 404, 512, 235
2282, 379, 373, 186, 337
2283, 469, 120, 136, 135
2284, 468, 466, 137, 121
2285, 567, 200, 216, 215
2286, 575, 198, 527, 197
2287, 383, 382, 110, 109
2288, 372, 155, 156, 171
2289, 384,  93, 109, 108
2290, 489, 225, 240, 224
2291, 360, 122, 106, 107
2292, 409, 206, 191, 222
2293, 316, 497, 570, 453
2294, 383, 125, 109, 110
2295, 362, 540, 189, 190
2296,  11,  12,  44, 490
2297, 526, 212, 196, 197
2298, 486, 118, 103, 119
2299, 360, 361, 125, 455
2300, 574,  80,  65, 559
2301, 499, 271, 302, 286
2302, 471, 193, 192, 177
2303, 186, 201, 547, 576
2304, 466, 106, 122, 121
2305, 344, 181, 180, 165
2306, 455, 551, 111,  95
2307, 576, 183, 167, 168
2308, 379, 187, 172, 188
2309, 460, 528, 178, 177
2310, 347, 358, 339, 460
2311, 466, 121, 105, 106
2312, 438, 117, 118, 133
2313, 547, 539, 219, 538
2314, 154, 376, 153, 169
2315, 377, 375, 372, 335
2316, 531,  62, 563, 566
2317, 490, 310, 518,  38
2318, 460, 528, 340, 179
2319, 169, 376, 153, 417
2320, 453, 557, 570,  43
2321, 423, 352, 381, 349
2322, 536, 540, 205, 189
2323, 540, 409, 537, 206
2324, 492, 208, 224, 223
2325, 471, 175, 176, 191
2326, 572, 533,  75,  74
2327, 454, 113, 129, 128
2328, 540, 190, 175, 206
2329, 528, 162, 178, 177
2330, 509, 114, 130, 129
2331, 521, 509, 484, 131
2332, 521, 132, 148, 147
2333, 372, 171, 156, 172
2334, 460, 178, 194, 193
2335, 409, 492, 493, 207
2336, 411, 208, 192, 193
2337, 373, 576, 186, 337
2338, 571, 575, 527, 181
2339, 369, 367,  72,  71
2340, 449, 559, 447,  82
2341, 174, 374, 189, 362
2342, 428, 121, 120, 105
2343, 362, 174, 159, 190
2344, 453, 316,   4,   5
2345, 347, 175, 159, 160
2346, 412, 413, 482, 415
2347, 375, 373, 417, 376
2348, 397, 299, 283, 284
2349, 520, 164, 163, 148
2350, 469, 467, 135, 134
2351, 341, 165, 166, 181
2352, 438, 134, 149, 133
2353, 340, 163, 164, 179
2354, 576, 186, 201, 185
2355, 547, 187, 202, 186
2356, 373, 186, 576, 185
*Nset, nset=Set-1, generate
   1,  579,    1
*Elset, elset=Set-1, generate
    1,  2356,     1
** Section: Section-2
*Solid Section, elset=Set-1, material=Material-2
,
*End Instance
**  
*Node
      1,           0.,           0.,           7.
*Nset, nset=RP
 1,
*Nset, nset=m_Set-1, instance=Part-1-1
   2,   3,  20,  21,  22,  23,  24,  25,  26,  27,  28,  29,  30,  31,  32,  33
  34,  35,  36,  37,  38,  39,  40,  41,  42,  43,  44,  45,  46,  47,  48,  49
  50,  51,  52,  53,  54,  55,  56,  57,  58,  59,  60,  61,  62,  63,  64, 367
 368, 369, 370, 371, 372, 373, 374, 375, 376, 377, 378, 379, 380, 381, 382, 383
 384, 385, 386, 387, 388, 389, 390, 391, 392, 393, 394, 395, 396, 397, 398, 399
 400, 401, 402, 403, 404, 405, 406, 407, 408, 409, 410, 411, 412, 413
*Nset, nset=m_Set-1, instance=Part-2-1
  1,  3,  4,  5,  6,  7,  8,  9, 10, 11, 12, 13, 14, 15, 16, 17
 33, 34, 35, 36, 37, 38, 39, 40, 41, 42, 43, 44, 45, 46
*Nset, nset=m_Set-2, instance=Part-1-1
   1,   4,   5,   6,   7,   8,   9,  10,  11,  12,  13,  14,  15,  16,  17,  18
  19,  65,  66,  67,  68,  69,  70,  71,  72,  73,  74,  75,  76,  77,  78,  79
  80,  81,  82,  83,  84,  85,  86,  87,  88,  89,  90,  91,  92,  93,  94, 414
 415, 416, 417, 418, 419, 420, 421, 422, 423, 424, 425, 426, 427, 428, 429, 430
 431, 432, 433, 434, 435, 436, 437, 438, 439, 440, 441, 442, 443, 444, 445, 446
 447, 448, 449, 450, 451, 452, 453, 454, 455, 456, 457, 458, 459, 460
*Nset, nset=m_Set-2, instance=Part-2-1
   2,  18,  19,  20,  21,  22,  23,  24,  25,  26,  27,  28,  29,  30,  31,  32
 319, 320, 321, 322, 323, 324, 325, 326, 327, 328, 329, 330, 331, 332, 333
*Surface, type=NODE, name=m_Set-2_CNS_, internal
m_Set-2, 1.
** Constraint: TIE_LOAD
*Coupling, constraint name=TIE_LOAD, ref node=RP, surface=m_Set-2_CNS_
*Kinematic
*End Assembly
** 
** MATERIALS
** 
*Material, name=Material-1
*Elastic
5000., 0.3
*Material, name=Material-2
*Elastic
200., 0.167
** ----------------------------------------------------------------
** 
** STEP: Step-1
** 
*Step, name=Step-1, nlgeom=NO
*Static
1., 1., 1e-05, 1.
** 
** OUTPUT REQUESTS
** 
*Restart, write, frequency=0
** 
** FIELD OUTPUT: F-Output-1
** 
*Output, field, variable=PRESELECT
** 
** HISTORY OUTPUT: H-Output-1
** 
*Output, history, variable=PRESELECT
*End Step
