*Heading
** Job name: simple_rat_600 Model name: simple_rat
** Generated by: Abaqus/CAE 2021
*Preprint, echo=NO, model=NO, history=NO, contact=NO
**
** PARTS
**
*Part, name=Part-1
*End Part
**  
*Part, name=Part-2
*End Part
**  
**
** ASSEMBLY
**
*Assembly, name=Assembly
**  
*Instance, name=Part-1-1, part=Part-1
*Node
      1,           0.,           1.,           7.
      2,           0.,           1.,           0.
      3,           0.,           2.,           0.
      4,           0.,           2.,           7.
      5, -0.587785244,  0.809017003,           7.
      6,  -0.95105654,  0.309017003,           7.
      7,  -0.95105654, -0.309017003,           7.
      8, -0.587785244, -0.809017003,           7.
      9,           0.,          -1.,           7.
     10,  0.587785244, -0.809017003,           7.
     11,   0.95105654, -0.309017003,           7.
     12,   0.95105654,  0.309017003,           7.
     13,  0.587785244,  0.809017003,           7.
     14, -0.587785244,  0.809017003,           0.
     15,  -0.95105654,  0.309017003,           0.
     16,  -0.95105654, -0.309017003,           0.
     17, -0.587785244, -0.809017003,           0.
     18,           0.,          -1.,           0.
     19,  0.587785244, -0.809017003,           0.
     20,   0.95105654, -0.309017003,           0.
     21,   0.95105654,  0.309017003,           0.
     22,  0.587785244,  0.809017003,           0.
     23, -0.589510322,   1.91114557,           0.
     24,  -1.12664008,    1.6524775,           0.
     25,  -1.56366301,   1.24697959,           0.
     26,   -1.8617475,  0.730682075,           0.
     27,  -1.99440765,  0.149460182,           0.
     28,   -1.9498558, -0.445041865,           0.
     29,  -1.73205078,          -1.,           0.
     30,  -1.36034548,  -1.46610379,           0.
     31, -0.867767453,   -1.8019377,           0.
     32, -0.298084527,  -1.97766161,           0.
     33,  0.298084527,  -1.97766161,           0.
     34,  0.867767453,   -1.8019377,           0.
     35,   1.36034548,  -1.46610379,           0.
     36,   1.73205078,          -1.,           0.
     37,    1.9498558, -0.445041865,           0.
     38,   1.99440765,  0.149460182,           0.
     39,    1.8617475,  0.730682075,           0.
     40,   1.56366301,   1.24697959,           0.
     41,   1.12664008,    1.6524775,           0.
     42,  0.589510322,   1.91114557,           0.
     43,  0.589510322,   1.91114557,           7.
     44,   1.12664008,    1.6524775,           7.
     45,   1.56366301,   1.24697959,           7.
     46,    1.8617475,  0.730682075,           7.
     47,   1.99440765,  0.149460182,           7.
     48,    1.9498558, -0.445041865,           7.
     49,   1.73205078,          -1.,           7.
     50,   1.36034548,  -1.46610379,           7.
     51,  0.867767453,   -1.8019377,           7.
     52,  0.298084527,  -1.97766161,           7.
     53, -0.298084527,  -1.97766161,           7.
     54, -0.867767453,   -1.8019377,           7.
     55,  -1.36034548,  -1.46610379,           7.
     56,  -1.73205078,          -1.,           7.
     57,   -1.9498558, -0.445041865,           7.
     58,  -1.99440765,  0.149460182,           7.
     59,   -1.8617475,  0.730682075,           7.
     60,  -1.56366301,   1.24697959,           7.
     61,  -1.12664008,    1.6524775,           7.
     62, -0.589510322,   1.91114557,           7.
     63, -0.587785244,  0.809017003,   6.36363649
     64,  -0.95105654,  0.309017003,   6.36363649
     65,  -0.95105654, -0.309017003,   6.36363649
     66, -0.587785244, -0.809017003,   6.36363649
     67,           0.,          -1.,   6.36363649
     68,  0.587785244, -0.809017003,   6.36363649
     69,   0.95105654, -0.309017003,   6.36363649
     70,   0.95105654,  0.309017003,   6.36363649
     71,  0.587785244,  0.809017003,   6.36363649
     72,           0.,           1.,   6.36363649
     73, -0.587785244,  0.809017003,   5.72727251
     74,  -0.95105654,  0.309017003,   5.72727251
     75,  -0.95105654, -0.309017003,   5.72727251
     76, -0.587785244, -0.809017003,   5.72727251
     77,           0.,          -1.,   5.72727251
     78,  0.587785244, -0.809017003,   5.72727251
     79,   0.95105654, -0.309017003,   5.72727251
     80,   0.95105654,  0.309017003,   5.72727251
     81,  0.587785244,  0.809017003,   5.72727251
     82,           0.,           1.,   5.72727251
     83, -0.587785244,  0.809017003,     5.090909
     84,  -0.95105654,  0.309017003,     5.090909
     85,  -0.95105654, -0.309017003,     5.090909
     86, -0.587785244, -0.809017003,     5.090909
     87,           0.,          -1.,     5.090909
     88,  0.587785244, -0.809017003,     5.090909
     89,   0.95105654, -0.309017003,     5.090909
     90,   0.95105654,  0.309017003,     5.090909
     91,  0.587785244,  0.809017003,     5.090909
     92,           0.,           1.,     5.090909
     93, -0.587785244,  0.809017003,    4.4545455
     94,  -0.95105654,  0.309017003,    4.4545455
     95,  -0.95105654, -0.309017003,    4.4545455
     96, -0.587785244, -0.809017003,    4.4545455
     97,           0.,          -1.,    4.4545455
     98,  0.587785244, -0.809017003,    4.4545455
     99,   0.95105654, -0.309017003,    4.4545455
    100,   0.95105654,  0.309017003,    4.4545455
    101,  0.587785244,  0.809017003,    4.4545455
    102,           0.,           1.,    4.4545455
    103, -0.587785244,  0.809017003,   3.81818175
    104,  -0.95105654,  0.309017003,   3.81818175
    105,  -0.95105654, -0.309017003,   3.81818175
    106, -0.587785244, -0.809017003,   3.81818175
    107,           0.,          -1.,   3.81818175
    108,  0.587785244, -0.809017003,   3.81818175
    109,   0.95105654, -0.309017003,   3.81818175
    110,   0.95105654,  0.309017003,   3.81818175
    111,  0.587785244,  0.809017003,   3.81818175
    112,           0.,           1.,   3.81818175
    113, -0.587785244,  0.809017003,   3.18181825
    114,  -0.95105654,  0.309017003,   3.18181825
    115,  -0.95105654, -0.309017003,   3.18181825
    116, -0.587785244, -0.809017003,   3.18181825
    117,           0.,          -1.,   3.18181825
    118,  0.587785244, -0.809017003,   3.18181825
    119,   0.95105654, -0.309017003,   3.18181825
    120,   0.95105654,  0.309017003,   3.18181825
    121,  0.587785244,  0.809017003,   3.18181825
    122,           0.,           1.,   3.18181825
    123, -0.587785244,  0.809017003,    2.5454545
    124,  -0.95105654,  0.309017003,    2.5454545
    125,  -0.95105654, -0.309017003,    2.5454545
    126, -0.587785244, -0.809017003,    2.5454545
    127,           0.,          -1.,    2.5454545
    128,  0.587785244, -0.809017003,    2.5454545
    129,   0.95105654, -0.309017003,    2.5454545
    130,   0.95105654,  0.309017003,    2.5454545
    131,  0.587785244,  0.809017003,    2.5454545
    132,           0.,           1.,    2.5454545
    133, -0.587785244,  0.809017003,   1.90909088
    134,  -0.95105654,  0.309017003,   1.90909088
    135,  -0.95105654, -0.309017003,   1.90909088
    136, -0.587785244, -0.809017003,   1.90909088
    137,           0.,          -1.,   1.90909088
    138,  0.587785244, -0.809017003,   1.90909088
    139,   0.95105654, -0.309017003,   1.90909088
    140,   0.95105654,  0.309017003,   1.90909088
    141,  0.587785244,  0.809017003,   1.90909088
    142,           0.,           1.,   1.90909088
    143, -0.587785244,  0.809017003,   1.27272725
    144,  -0.95105654,  0.309017003,   1.27272725
    145,  -0.95105654, -0.309017003,   1.27272725
    146, -0.587785244, -0.809017003,   1.27272725
    147,           0.,          -1.,   1.27272725
    148,  0.587785244, -0.809017003,   1.27272725
    149,   0.95105654, -0.309017003,   1.27272725
    150,   0.95105654,  0.309017003,   1.27272725
    151,  0.587785244,  0.809017003,   1.27272725
    152,           0.,           1.,   1.27272725
    153, -0.587785244,  0.809017003,  0.636363626
    154,  -0.95105654,  0.309017003,  0.636363626
    155,  -0.95105654, -0.309017003,  0.636363626
    156, -0.587785244, -0.809017003,  0.636363626
    157,           0.,          -1.,  0.636363626
    158,  0.587785244, -0.809017003,  0.636363626
    159,   0.95105654, -0.309017003,  0.636363626
    160,   0.95105654,  0.309017003,  0.636363626
    161,  0.587785244,  0.809017003,  0.636363626
    162,           0.,           1.,  0.636363626
    163,  -1.16974187,  0.921439826,           0.
    164,  -1.48801327,  0.407056391,           0.
    165,  -1.44924891,  -0.54409039,           0.
    166,  -1.46393979, -0.0721026137,           0.
    167,  -1.15993261, -0.899517059,           0.
    168, -0.437797189,  -1.40108526,           0.
    169, -0.882725596,  -1.27553213,           0.
    170, 0.0342258811,  -1.54313564,           0.
    171,  0.606899083,  -1.35867715,           0.
    172,     1.112077, -0.915502191,           0.
    173,   1.46172416, -0.0750056952,           0.
    174,   1.44135284,  -0.54891336,           0.
    175,   1.48848999,  0.407418221,           0.
    176,   1.17075121,  0.920813501,           0.
    177,  0.612588882,   1.30676949,           0.
    178, -0.200043738,   1.55233049,           0.
    179,  0.200411096,   1.55404913,           0.
    180, -0.612286866,   1.30773509,           0.
    181,   1.16974187,  0.921439826,           7.
    182,   1.48801327,  0.407056391,           7.
    183,   1.44924891,  -0.54409039,           7.
    184,   1.46393979, -0.0721026137,           7.
    185,   1.15993261, -0.899517059,           7.
    186,  0.432837635,  -1.39885867,           7.
    187,  0.881733656,  -1.27508688,           7.
    188, -0.607092261,  -1.35731113,           7.
    189,  -1.11210442, -0.915205002,           7.
    190,  -1.46171939, -0.0749361292,           7.
    191,  -1.44135737, -0.548839986,           7.
    192,  -1.48848903,  0.407432139,           7.
    193,  -1.17075098,  0.920815527,           7.
    194, -0.612588882,   1.30676973,           7.
    195,  0.200043738,   1.55233049,           7.
    196, -0.200411096,   1.55404913,           7.
    197, -0.0348509215,  -1.54229867,           7.
    198,  0.612286866,   1.30773509,           7.
    199,  0.589510322,   1.91114557,   6.41666651
    200,   1.12664008,    1.6524775,   6.41666651
    201,   1.56366301,   1.24697959,   6.41666651
    202,    1.8617475,  0.730682075,   6.41666651
    203,   1.99440765,  0.149460182,   6.41666651
    204,    1.9498558, -0.445041865,   6.41666651
    205,   1.73205078,          -1.,   6.41666651
    206,   1.36034548,  -1.46610379,   6.41666651
    207,  0.867767453,   -1.8019377,   6.41666651
    208,  0.298084527,  -1.97766161,   6.41666651
    209, -0.298084527,  -1.97766161,   6.41666651
    210, -0.867767453,   -1.8019377,   6.41666651
    211,  -1.36034548,  -1.46610379,   6.41666651
    212,  -1.73205078,          -1.,   6.41666651
    213,   -1.9498558, -0.445041865,   6.41666651
    214,  -1.99440765,  0.149460182,   6.41666651
    215,   -1.8617475,  0.730682075,   6.41666651
    216,  -1.56366301,   1.24697959,   6.41666651
    217,  -1.12664008,    1.6524775,   6.41666651
    218, -0.589510322,   1.91114557,   6.41666651
    219,           0.,           2.,   6.41666651
    220,  0.589510322,   1.91114557,   5.83333349
    221,   1.12664008,    1.6524775,   5.83333349
    222,   1.56366301,   1.24697959,   5.83333349
    223,    1.8617475,  0.730682075,   5.83333349
    224,   1.99440765,  0.149460182,   5.83333349
    225,    1.9498558, -0.445041865,   5.83333349
    226,   1.73205078,          -1.,   5.83333349
    227,   1.36034548,  -1.46610379,   5.83333349
    228,  0.867767453,   -1.8019377,   5.83333349
    229,  0.298084527,  -1.97766161,   5.83333349
    230, -0.298084527,  -1.97766161,   5.83333349
    231, -0.867767453,   -1.8019377,   5.83333349
    232,  -1.36034548,  -1.46610379,   5.83333349
    233,  -1.73205078,          -1.,   5.83333349
    234,   -1.9498558, -0.445041865,   5.83333349
    235,  -1.99440765,  0.149460182,   5.83333349
    236,   -1.8617475,  0.730682075,   5.83333349
    237,  -1.56366301,   1.24697959,   5.83333349
    238,  -1.12664008,    1.6524775,   5.83333349
    239, -0.589510322,   1.91114557,   5.83333349
    240,           0.,           2.,   5.83333349
    241,  0.589510322,   1.91114557,         5.25
    242,   1.12664008,    1.6524775,         5.25
    243,   1.56366301,   1.24697959,         5.25
    244,    1.8617475,  0.730682075,         5.25
    245,   1.99440765,  0.149460182,         5.25
    246,    1.9498558, -0.445041865,         5.25
    247,   1.73205078,          -1.,         5.25
    248,   1.36034548,  -1.46610379,         5.25
    249,  0.867767453,   -1.8019377,         5.25
    250,  0.298084527,  -1.97766161,         5.25
    251, -0.298084527,  -1.97766161,         5.25
    252, -0.867767453,   -1.8019377,         5.25
    253,  -1.36034548,  -1.46610379,         5.25
    254,  -1.73205078,          -1.,         5.25
    255,   -1.9498558, -0.445041865,         5.25
    256,  -1.99440765,  0.149460182,         5.25
    257,   -1.8617475,  0.730682075,         5.25
    258,  -1.56366301,   1.24697959,         5.25
    259,  -1.12664008,    1.6524775,         5.25
    260, -0.589510322,   1.91114557,         5.25
    261,           0.,           2.,         5.25
    262,  0.589510322,   1.91114557,   4.66666651
    263,   1.12664008,    1.6524775,   4.66666651
    264,   1.56366301,   1.24697959,   4.66666651
    265,    1.8617475,  0.730682075,   4.66666651
    266,   1.99440765,  0.149460182,   4.66666651
    267,    1.9498558, -0.445041865,   4.66666651
    268,   1.73205078,          -1.,   4.66666651
    269,   1.36034548,  -1.46610379,   4.66666651
    270,  0.867767453,   -1.8019377,   4.66666651
    271,  0.298084527,  -1.97766161,   4.66666651
    272, -0.298084527,  -1.97766161,   4.66666651
    273, -0.867767453,   -1.8019377,   4.66666651
    274,  -1.36034548,  -1.46610379,   4.66666651
    275,  -1.73205078,          -1.,   4.66666651
    276,   -1.9498558, -0.445041865,   4.66666651
    277,  -1.99440765,  0.149460182,   4.66666651
    278,   -1.8617475,  0.730682075,   4.66666651
    279,  -1.56366301,   1.24697959,   4.66666651
    280,  -1.12664008,    1.6524775,   4.66666651
    281, -0.589510322,   1.91114557,   4.66666651
    282,           0.,           2.,   4.66666651
    283,  0.589510322,   1.91114557,   4.08333349
    284,   1.12664008,    1.6524775,   4.08333349
    285,   1.56366301,   1.24697959,   4.08333349
    286,    1.8617475,  0.730682075,   4.08333349
    287,   1.99440765,  0.149460182,   4.08333349
    288,    1.9498558, -0.445041865,   4.08333349
    289,   1.73205078,          -1.,   4.08333349
    290,   1.36034548,  -1.46610379,   4.08333349
    291,  0.867767453,   -1.8019377,   4.08333349
    292,  0.298084527,  -1.97766161,   4.08333349
    293, -0.298084527,  -1.97766161,   4.08333349
    294, -0.867767453,   -1.8019377,   4.08333349
    295,  -1.36034548,  -1.46610379,   4.08333349
    296,  -1.73205078,          -1.,   4.08333349
    297,   -1.9498558, -0.445041865,   4.08333349
    298,  -1.99440765,  0.149460182,   4.08333349
    299,   -1.8617475,  0.730682075,   4.08333349
    300,  -1.56366301,   1.24697959,   4.08333349
    301,  -1.12664008,    1.6524775,   4.08333349
    302, -0.589510322,   1.91114557,   4.08333349
    303,           0.,           2.,   4.08333349
    304,  0.589510322,   1.91114557,          3.5
    305,   1.12664008,    1.6524775,          3.5
    306,   1.56366301,   1.24697959,          3.5
    307,    1.8617475,  0.730682075,          3.5
    308,   1.99440765,  0.149460182,          3.5
    309,    1.9498558, -0.445041865,          3.5
    310,   1.73205078,          -1.,          3.5
    311,   1.36034548,  -1.46610379,          3.5
    312,  0.867767453,   -1.8019377,          3.5
    313,  0.298084527,  -1.97766161,          3.5
    314, -0.298084527,  -1.97766161,          3.5
    315, -0.867767453,   -1.8019377,          3.5
    316,  -1.36034548,  -1.46610379,          3.5
    317,  -1.73205078,          -1.,          3.5
    318,   -1.9498558, -0.445041865,          3.5
    319,  -1.99440765,  0.149460182,          3.5
    320,   -1.8617475,  0.730682075,          3.5
    321,  -1.56366301,   1.24697959,          3.5
    322,  -1.12664008,    1.6524775,          3.5
    323, -0.589510322,   1.91114557,          3.5
    324,           0.,           2.,          3.5
    325,  0.589510322,   1.91114557,   2.91666675
    326,   1.12664008,    1.6524775,   2.91666675
    327,   1.56366301,   1.24697959,   2.91666675
    328,    1.8617475,  0.730682075,   2.91666675
    329,   1.99440765,  0.149460182,   2.91666675
    330,    1.9498558, -0.445041865,   2.91666675
    331,   1.73205078,          -1.,   2.91666675
    332,   1.36034548,  -1.46610379,   2.91666675
    333,  0.867767453,   -1.8019377,   2.91666675
    334,  0.298084527,  -1.97766161,   2.91666675
    335, -0.298084527,  -1.97766161,   2.91666675
    336, -0.867767453,   -1.8019377,   2.91666675
    337,  -1.36034548,  -1.46610379,   2.91666675
    338,  -1.73205078,          -1.,   2.91666675
    339,   -1.9498558, -0.445041865,   2.91666675
    340,  -1.99440765,  0.149460182,   2.91666675
    341,   -1.8617475,  0.730682075,   2.91666675
    342,  -1.56366301,   1.24697959,   2.91666675
    343,  -1.12664008,    1.6524775,   2.91666675
    344, -0.589510322,   1.91114557,   2.91666675
    345,           0.,           2.,   2.91666675
    346,  0.589510322,   1.91114557,   2.33333325
    347,   1.12664008,    1.6524775,   2.33333325
    348,   1.56366301,   1.24697959,   2.33333325
    349,    1.8617475,  0.730682075,   2.33333325
    350,   1.99440765,  0.149460182,   2.33333325
    351,    1.9498558, -0.445041865,   2.33333325
    352,   1.73205078,          -1.,   2.33333325
    353,   1.36034548,  -1.46610379,   2.33333325
    354,  0.867767453,   -1.8019377,   2.33333325
    355,  0.298084527,  -1.97766161,   2.33333325
    356, -0.298084527,  -1.97766161,   2.33333325
    357, -0.867767453,   -1.8019377,   2.33333325
    358,  -1.36034548,  -1.46610379,   2.33333325
    359,  -1.73205078,          -1.,   2.33333325
    360,   -1.9498558, -0.445041865,   2.33333325
    361,  -1.99440765,  0.149460182,   2.33333325
    362,   -1.8617475,  0.730682075,   2.33333325
    363,  -1.56366301,   1.24697959,   2.33333325
    364,  -1.12664008,    1.6524775,   2.33333325
    365, -0.589510322,   1.91114557,   2.33333325
    366,           0.,           2.,   2.33333325
    367,  0.589510322,   1.91114557,         1.75
    368,   1.12664008,    1.6524775,         1.75
    369,   1.56366301,   1.24697959,         1.75
    370,    1.8617475,  0.730682075,         1.75
    371,   1.99440765,  0.149460182,         1.75
    372,    1.9498558, -0.445041865,         1.75
    373,   1.73205078,          -1.,         1.75
    374,   1.36034548,  -1.46610379,         1.75
    375,  0.867767453,   -1.8019377,         1.75
    376,  0.298084527,  -1.97766161,         1.75
    377, -0.298084527,  -1.97766161,         1.75
    378, -0.867767453,   -1.8019377,         1.75
    379,  -1.36034548,  -1.46610379,         1.75
    380,  -1.73205078,          -1.,         1.75
    381,   -1.9498558, -0.445041865,         1.75
    382,  -1.99440765,  0.149460182,         1.75
    383,   -1.8617475,  0.730682075,         1.75
    384,  -1.56366301,   1.24697959,         1.75
    385,  -1.12664008,    1.6524775,         1.75
    386, -0.589510322,   1.91114557,         1.75
    387,           0.,           2.,         1.75
    388,  0.589510322,   1.91114557,   1.16666663
    389,   1.12664008,    1.6524775,   1.16666663
    390,   1.56366301,   1.24697959,   1.16666663
    391,    1.8617475,  0.730682075,   1.16666663
    392,   1.99440765,  0.149460182,   1.16666663
    393,    1.9498558, -0.445041865,   1.16666663
    394,   1.73205078,          -1.,   1.16666663
    395,   1.36034548,  -1.46610379,   1.16666663
    396,  0.867767453,   -1.8019377,   1.16666663
    397,  0.298084527,  -1.97766161,   1.16666663
    398, -0.298084527,  -1.97766161,   1.16666663
    399, -0.867767453,   -1.8019377,   1.16666663
    400,  -1.36034548,  -1.46610379,   1.16666663
    401,  -1.73205078,          -1.,   1.16666663
    402,   -1.9498558, -0.445041865,   1.16666663
    403,  -1.99440765,  0.149460182,   1.16666663
    404,   -1.8617475,  0.730682075,   1.16666663
    405,  -1.56366301,   1.24697959,   1.16666663
    406,  -1.12664008,    1.6524775,   1.16666663
    407, -0.589510322,   1.91114557,   1.16666663
    408,           0.,           2.,   1.16666663
    409,  0.589510322,   1.91114557,  0.583333313
    410,   1.12664008,    1.6524775,  0.583333313
    411,   1.56366301,   1.24697959,  0.583333313
    412,    1.8617475,  0.730682075,  0.583333313
    413,   1.99440765,  0.149460182,  0.583333313
    414,    1.9498558, -0.445041865,  0.583333313
    415,   1.73205078,          -1.,  0.583333313
    416,   1.36034548,  -1.46610379,  0.583333313
    417,  0.867767453,   -1.8019377,  0.583333313
    418,  0.298084527,  -1.97766161,  0.583333313
    419, -0.298084527,  -1.97766161,  0.583333313
    420, -0.867767453,   -1.8019377,  0.583333313
    421,  -1.36034548,  -1.46610379,  0.583333313
    422,  -1.73205078,          -1.,  0.583333313
    423,   -1.9498558, -0.445041865,  0.583333313
    424,  -1.99440765,  0.149460182,  0.583333313
    425,   -1.8617475,  0.730682075,  0.583333313
    426,  -1.56366301,   1.24697959,  0.583333313
    427,  -1.12664008,    1.6524775,  0.583333313
    428, -0.589510322,   1.91114557,  0.583333313
    429,           0.,           2.,  0.583333313
    430, 0.0583569184,   1.48605752,   6.54959393
    431, -0.555167139,   1.39803755,   6.61144304
    432, -0.332030535,   1.38152587,   6.14201355
    433,  0.297772378,   1.46023703,   6.09577036
    434,   1.46855557,  0.212166011,   6.60545969
    435,   1.54803288, 0.0420552194,    6.1789608
    436,   1.21621215,  0.749562263,   6.10406637
    437,  -1.28396356, -0.789435327,   2.73449612
    438,   1.53117716, -0.223793119,   6.61342812
    439,   1.22986913, -0.730286956,   5.99429464
    440,      1.14431, -0.600845098,  0.379104644
    441,   1.31950665, 0.0283539128,  0.568854392
    442,   1.50728643, -0.378602356,   1.23547661
    443,  0.334746391,   1.37120426,   2.75980091
    444,  0.282763034,   1.38944519,   3.39692283
    445,  -1.57888436,  0.274159759,   6.59451771
    446,   -1.5251385,  0.239334509,   0.39401111
    447,  -1.26631677,   0.85756582,   0.80348593
    448,  -1.53576112,  0.195789188,  0.935232639
    449,  -1.30814612, -0.728449464,  0.855937541
    450,  -1.52961779, -0.224912733,  0.392299563
    451,   1.00086927,   1.23158216,  0.967942834
    452,  0.760596275,   1.18192935,  0.420341134
    453,  0.482292175,    1.4793843,   3.81841755
    454, -0.142870039,   1.56357944,   3.47773194
    455,           0.,   1.50511968,   4.26703882
    456, -0.182692051,  -1.50150633,   6.61722183
    457,  -0.55407238,  -1.31246388,   6.15640211
    458, -0.988618374,  -1.23946381,   6.60126972
    459,  0.440436214,  -1.40611386,   6.10091686
    460,  -1.22213209, -0.819737852,   6.66240501
    461,  -1.16577578, -0.905486286,   6.09577036
    462,  -1.50873411, -0.145826489,   6.62818623
    463,  -1.46239007, -0.187844709,   6.05634069
    464,  -1.32605851,  0.837513089,    6.6306572
    465,  -1.23568666,  0.793284953,   6.09925747
    466, -0.541074753,  -1.30750525,  0.420008123
    467, -0.189007953,  -1.46042335,  0.328941017
    468, -0.474047005,  -1.39050591,  0.890630662
    469,  -1.53273451,  0.365936339,   6.00738573
    470,   1.52098417,  0.236967593,   5.43547916
    471,  0.447238117,  -1.42706084,  0.880252719
    472,  0.942559361,  -1.03781247,   6.65933132
    473,  -1.52615833, -0.103134282,   3.43040133
    474,  -1.02435577,  -1.12534034,   3.70401812
    475,  -1.25153089, -0.724260569,   4.30027246
    476, -0.475147545,  -1.39359379,   3.31559229
    477,   1.34319711,  0.587775111,   2.85453582
    478,    1.2830497,  0.846013248,   2.16101885
    479, -0.526134551,   1.42460203,   4.86671829
    480,  -0.58421123,    1.4207232,   5.45488167
    481, 0.0322783254,   1.54603207,   5.55455732
    482, -0.582731187,   1.43665922,   4.27416897
    483,  0.296300262,  -1.50778282,   2.74032593
    484,   1.02973962,  -1.08538842,   2.04435563
    485,  0.439346343,  -1.38279903,   2.11009884
    486,    1.0052892,   1.19993794,   6.51028681
    487,  0.689314902,   1.15749133,    5.7769227
    488,   1.40125871,  0.708359003,   6.61609888
    489,  -1.48467791, -0.443767816,   5.46636438
    490,  -1.16577578, -0.905486286,    5.4861927
    491,   -1.1598891,   1.00016665,    2.7298696
    492,   1.40919745,  0.159580499,   1.49932778
    493,    1.4687463,  0.409457713,   1.02868974
    494,   1.15154374, -0.872804463,  0.927600265
    495,   1.18180811, -0.717910528,   1.49181116
    496,   1.47002411, -0.410806179,   2.06285501
    497, -0.576430798,  -1.36592376,   2.75070977
    498, -0.548053086,  -1.40867233,   5.46432304
    499,  0.712568104,  -1.33897471,    3.4198997
    500,   1.20750713, -0.884059012,   3.60745645
    501,  0.356497318,  -1.43723214,   4.28802109
    502,   1.47608292, -0.337011576,   5.47575569
    503, -0.0420851782,   1.37292206,  0.446586877
    504,  0.400134891,   1.27337599,  0.326039791
    505,  0.352754086,   1.42202675,    1.2288897
    506, -0.853406429,   1.27130175,   6.12619066
    507,   1.47392702,  0.422756404,   2.14460444
    508,   1.24653327, -0.729537129,   2.70631886
    509,  -1.14341116,   1.03251946,   1.55033708
    510,   1.34956527,  0.726932466,  0.454448968
    511,  -1.01544011,   1.23647118,  0.289568603
    512, -0.450968951,   1.46447778,  0.729241729
    513,  -1.49457216,  0.739330173,  0.354823172
    514,  0.953468978,  -1.25169694,  0.382117599
    515,  -1.52582395,  0.207233548,   2.13695073
    516, -0.519462585,   -1.3632952,   4.30457687
    517, -0.389807016,   -1.3774941,   2.08565903
    518,  -1.50196457, 0.0568171553,   4.89126253
    519,  -1.42305267,  0.122884944,   5.53016615
    520,  -1.27029943, -0.881696105,   4.86193657
    521,  0.584610343,   1.51219559,    3.3695631
    522,   1.07826257,  0.921763301,   3.38912058
    523,   1.05185592,  0.942740917,   3.98951697
    524,  0.859971106,   1.23506474,   2.73296094
    525,   1.39248455,    0.6500296,   3.59557652
    526,   -1.1935904,  0.925496757,   5.56254053
    527, -0.980499148,   1.27099228,   6.59767723
    528, -0.583141327,   1.34960675,   3.49689078
    529, -0.465138048,   1.34912431,   2.75891852
    530,   -1.1983273,  0.765041649,   3.38711643
    531,  -1.42506528, 0.0891176537,   4.24690628
    532, -0.569757462,  -1.43418109,    4.8620801
    533,  0.914853454,   1.24369967,   2.08882451
    534,    1.4990896, -0.173224658,   3.06832552
    535,   1.25162446,  0.741951585,    5.5086627
    536,  -1.22797394,  0.914885163,   4.21317005
    537,   1.47571754, -0.570362091,   4.80590916
    538,   1.15366232, -0.913901269,   4.27921581
    539,   1.48024559, -0.405421436,   4.37928057
    540,   1.54363966, 0.0693363398,   4.98005152
    541,   1.16577542, -0.905486286,    5.4861927
    542, 0.0103331786,  -1.57453394,   1.64973271
    543, -0.625034511,  -1.35068643,   1.49561334
    544,  0.441451639,  -1.39932215,   1.51380682
    545,  -1.29162872,  0.859522104,   4.86135387
    546,  0.438325614,  -1.40507448,    5.4861927
    547,  0.342097223,  -1.40738416,   4.87417984
    548,   1.08079886,  -1.09577525,   4.90047646
    549,  -1.52241325,  0.186899751,   2.72423553
    550,  0.316224366,   1.33461952,   4.68519926
    551,  0.417919099,   1.40009665,   5.18952703
    552, -0.346831471,    1.5109638,   1.54296362
    553, -0.348923922,   1.49821138,    2.1372571
    554,   1.23743713,  0.744271517,   4.90828514
    555,   1.04279089,   1.04972017,   4.53465796
    556,  0.812799573,   1.31645489,    1.4084177
    557,   -1.2759552, -0.773307681,   2.16194415
    558,   -1.5261476,  0.223454297,   1.54556549
    559,   1.41499281,  0.225333467,   4.22423792
    560,   1.52155173, -0.198635921,   3.68391228
    561,   1.06225288,   1.13238645,    5.3985343
    562,   -1.3732096, -0.689571023,   1.54943204
    563,  -1.14341116,   1.03251946,   2.13695073
    564,   1.28773201,    0.8526963,   1.55387449
    565,  0.336205214,   1.37091076,    2.1212461
    566,  0.943525136,  -1.23494327,   1.60948193
    567,  0.537382066,   1.30949068,   4.24550104
*Element, type=C3D4
   1, 430,  72, 431, 432
   2, 430, 431, 218, 432
   3, 430, 433, 219, 199
   4, 219, 196,   4, 218
   5, 195, 196,   4, 219
   6, 430, 431, 196, 218
   7, 434, 435,  70, 436
   8, 339, 115, 338, 437
   9, 434, 184, 182,  12
  10, 434, 438,  69, 435
  11, 434,  11, 184,  12
  12, 438, 185, 183,  11
  13, 438, 183, 204,  48
  14, 434, 435,  69,  70
  15, 438, 183, 184,  11
  16, 438, 435, 204, 439
  17, 440,  20, 441, 173
  18, 174, 172,  36, 415
  19, 440, 442, 441, 159
  20, 345, 122, 443, 444
  21, 445, 192,  59,  58
  22, 446, 447, 425, 448
  23, 167, 449, 165, 422
  24, 446, 450, 155, 448
  25, 446, 450,  27, 166
  26, 451, 410, 452, 409
  27, 453, 454, 444, 112
  28, 453, 303, 455, 283
  29, 453, 454, 303, 324
  30, 454, 453, 444, 324
  31,  53,  54, 188, 456
  32, 456,  66, 457, 458
  33, 456, 197, 186,   9
  34, 456, 459, 186, 208
  35,  53, 456, 208, 209
  36, 456, 459, 209, 457
  37, 460, 211,  55,  56
  38, 460, 211, 461, 458
  39, 460, 462, 191,   7
  40, 460, 462,  65, 463
  41, 460, 462, 463, 213
  42, 460, 191, 212,  56
  43, 460, 191, 462, 213
  44, 445, 215, 464, 465
  45, 445,  59, 464, 215
  46, 445, 214,  58,  59
  47, 445,  64,   6, 190
  48, 214,  58, 462, 445
  49, 466, 420, 169,  31
  50, 466, 419, 467, 468
  51, 445, 465,  64, 469
  52,  16, 165, 155, 450
  53, 167, 155, 165, 449
  54, 450, 165, 423,  28
  55, 446, 448, 155, 154
  56, 450,  16, 165, 166
  57, 450, 448, 423, 449
  58, 466, 467, 419,  32
  59, 466, 168,  17,  18
  60, 466, 467,  18, 157
  61, 435, 436, 223, 470
  62, 157, 467, 170, 471
  63, 471, 467, 170, 418
  64, 467, 468, 471, 157
  65, 467,  18, 170, 168
  66, 467, 170, 419,  32
  67, 460, 461,  66, 458
  68, 462,  58, 213,  57
  69, 460, 463, 461, 212
  70, 462,  58, 214, 213
  71, 462, 213, 191,  57
  72, 462, 190, 191,   7
  73, 472, 186, 187,  10
  74, 472,  10, 185,  11
  75, 438, 472, 439, 205
  76, 472, 186, 459, 207
  77, 187, 185,  50, 206
  78, 472, 459, 439, 206
  79, 473, 338, 115, 474
  80, 474, 297, 475, 105
  81, 476, 316, 337, 336
  82, 474, 315, 294, 295
  83, 474, 437, 116, 337
  84, 476, 315, 474, 316
  85, 474, 475, 296, 295
  86, 477, 478, 130, 131
  87, 479, 480, 260, 259
  88, 479, 481, 261, 260
  89, 479, 482, 102,  93
  90, 479, 480, 481, 260
  91, 483, 128, 484, 485
  92, 486, 433, 199, 220
  93, 430, 198, 486, 199
  94, 486, 436, 222, 201
  95, 436, 222, 487, 486
  96, 488, 486,  45, 201
  97, 220, 486, 487, 221
  98, 487, 486, 433,  71
  99, 437, 126, 125, 116
 100, 489, 461,  75, 463
 101, 490, 489, 461,  75
 102, 489, 490,  85,  75
 103, 490, 461, 233, 232
 104, 489, 233, 490, 461
 105, 491, 123, 114, 124
 106, 150, 492, 149, 493
 107, 492, 149, 493, 442
 108, 440, 442, 159, 494
 109, 442, 441, 159, 149
 110, 442, 413, 393, 414
 111, 442, 373, 394, 393
 112, 442, 139, 495, 496
 113, 497, 126, 116, 117
 114, 373, 442, 496, 372
 115, 457, 498,  76,  77
 116,  64, 465, 464,  63
 117, 484, 129, 139, 138
 118, 457, 498, 230, 231
 119, 456, 457, 210, 458
 120, 188,  66,   9, 456
 121, 499, 108, 500, 118
 122, 483, 499, 332, 118
 123, 499, 292, 501, 107
 124, 476, 334, 483, 499
 125, 483, 499, 334, 333
 126, 435, 502, 470, 224
 127, 438, 203,  47,  48
 128, 438, 472, 205, 185
 129, 434, 435, 436, 202
 130,  46, 434, 488, 202
 131, 409, 503, 504, 505
 132, 434, 438, 184,  11
 133, 432, 506, 218, 239
 134, 484, 129, 138, 128
 135, 496, 507, 129, 350
 136, 508, 484, 496, 352
 137, 496, 492, 442, 139
 138, 484, 496, 373, 495
 139, 508, 351, 496, 129
 140, 509, 447, 404, 405
 141,  42, 452, 504, 177
 142, 451, 161, 452, 510
 143, 451, 505, 452, 161
 144, 452,  22, 177, 176
 145,  22, 161, 510, 452
 146, 511, 163,  14, 153
 147, 511, 512, 153, 180
 148, 511, 513, 447, 426
 149, 511,  25, 513, 426
 150, 511, 163,  25,  24
 151, 440, 494, 416, 415
 152, 440, 172,  19,  20
 153, 514, 471, 494, 158
 154, 514, 171, 471, 158
 155, 171, 172, 158, 514
 156, 515, 361, 381, 360
 157, 416, 440, 172, 514
 158, 501,  97, 516, 272
 159, 501, 516, 107, 293
 160, 499, 313, 312, 292
 161, 499, 107, 313, 292
 162, 499, 501, 108, 107
 163, 517, 127, 136, 126
 164, 490, 232, 498,  76
 165, 490,  75, 461,  76
 166, 489, 518, 256, 519
 167, 489, 518, 520, 255
 168, 521, 522, 523, 111
 169, 521, 522, 524, 326
 170, 523, 522, 305, 306
 171, 522, 120, 477, 525
 172, 524, 326, 522, 327
 173, 506, 465, 237, 526
 174, 506, 465, 216, 237
 175, 506, 216, 465, 527
 176, 506, 217, 218, 238
 177, 527, 431,   5,  63
 178, 513, 163, 154,  15
 179, 446, 447, 513, 425
 180, 513, 447, 426, 425
 181, 513, 426,  25,  26
 182, 511, 163, 513,  25
 183, 164,  26, 446, 513
 184, 528, 482, 301, 103
 185, 528, 454, 112, 122
 186, 112, 528, 482, 454
 187, 122, 528, 454, 529
 188, 528, 530, 322, 343
 189, 522, 121, 477, 120
 190, 518,  95, 531,  94
 191, 489, 256, 518, 255
 192, 529, 491, 364, 123
 193, 344, 529, 345, 454
 194, 529, 491, 113, 343
 195, 511, 447, 512, 427
 196, 509, 447, 144, 404
 197, 509, 384, 404, 383
 198, 447, 448, 404, 425
 199, 427, 180,  24, 428
 200, 447, 512, 406, 143
 201, 511, 447, 513, 153
 202, 447, 448, 144, 404
 203, 509, 144, 447, 143
 204, 416, 440, 415, 172
 205, 441, 493, 150, 149
 206, 532, 253, 498,  86
 207, 478, 524, 533, 131
 208, 441, 493, 413, 412
 209, 527, 193,   5, 194
 210, 440, 173, 174,  20
 211, 441,  21, 175, 173
 212, 441, 493, 160, 150
 213, 509, 143, 133, 134
 214, 441, 173,  20,  21
 215, 330, 534, 350, 351
 216, 534, 508, 119, 129
 217, 460, 213, 463, 212
 218, 534, 331, 508, 330
 219, 483, 497, 356, 335
 220, 119, 508, 534, 500
 221, 508, 500, 332, 331
 222, 508, 353, 484, 352
 223, 508, 118, 483, 332
 224, 508, 352, 331, 332
 225, 535,  90,  80,  81
 226, 525, 534, 477, 308
 227, 536, 278, 531,  94
 228, 171, 158,  18, 157
 229, 104, 530, 320, 536
 230, 536, 531, 299, 104
 231, 328, 525, 327, 477
 232, 486, 198,  13, 181
 233,  72,  81, 487,  71
 234, 430, 486,  71, 433
 235, 433, 481, 240, 220
 236, 433, 219, 199, 240
 237, 463, 235, 489, 234
 238, 537, 538,  99, 539
 239, 537, 539,  99, 540
 240, 537, 267, 539, 540
 241, 527,  63, 193, 464
 242, 465, 469, 215, 236
 243, 465, 526, 469, 236
 244, 506, 238, 237, 217
 245, 506, 465,  63, 527
 246, 502, 541, 226, 439
 247, 435, 502, 225, 439
 248, 537, 502, 540,  89
 249, 537, 540, 246, 267
 250, 502, 470, 245, 540
 251, 502, 226, 541, 247
 252, 542, 356, 517, 377
 253, 542, 517, 355, 485
 254, 542, 543, 377, 517
 255, 542, 147, 543, 137
 256, 542, 485, 544, 137
 257, 518, 277, 257, 278
 258, 545, 526, 257, 519
 259, 536, 280, 482, 301
 260, 536,  94, 545, 278
 261, 512, 427, 407, 428
 262, 545, 526, 259, 258
 263, 545, 280, 279, 259
 264, 536, 482, 103, 301
 265, 479, 545,  93,  83
 266, 543, 468, 398, 399
 267, 543, 517, 137, 136
 268, 543, 517, 379, 378
 269, 546, 498, 230,  77
 270, 546, 547, 548, 249
 271, 546,  88, 547,  87
 272, 459, 546, 228, 229
 273, 549, 473, 115, 114
 274, 506, 239, 480, 238
 275, 480, 526, 238, 259
 276, 479, 545, 280,  93
 277, 464, 216, 465, 215
 278, 479, 550, 551,  92
 279, 480, 481,  82,  92
 280, 480, 526, 259,  83
 281, 479, 280, 259, 260
 282, 501, 292, 271, 272
 283, 448, 145, 449, 155
 284, 501, 538, 290, 108
 285, 476, 294, 516, 106
 286, 476, 293, 516, 294
 287, 501, 293, 107, 292
 288, 500, 332, 499, 118
 289, 508, 500, 119, 118
 290, 312, 311, 499, 291
 291, 431,   1, 196, 194
 292, 500, 538, 290, 289
 293, 499, 108, 117, 107
 294, 311, 499, 291, 290
 295, 522, 525, 110, 120
 296, 552, 386, 406, 385
 297, 552, 512, 407, 408
 298, 552, 553, 142, 387
 299, 552, 553, 133, 142
 300, 552, 407, 512, 406
 301, 554, 100, 540,  90
 302, 554, 101, 555, 100
 303, 554, 100,  91, 101
 304, 451, 556, 505, 151
 305, 452, 510, 176, 411
 306, 505, 452, 161, 504
 307, 451, 510, 493, 151
 308, 451, 411, 452, 410
 309, 451, 510, 411, 390
 310, 452,  22, 176, 510
 311, 504,  42, 179, 409
 312, 466, 169, 167,  17
 313, 507, 370, 350, 371
 314, 542, 543, 468, 398
 315, 543, 378, 398, 377
 316, 466, 168,  32,  31
 317, 466,  32, 420,  31
 318, 468, 471, 397, 418
 319, 542, 468, 471, 397
 320, 467, 471, 468, 418
 321, 515, 557, 360, 381
 322, 515, 557, 125, 360
 323, 549, 437, 115, 339
 324, 515, 558, 382, 383
 325, 515, 558, 381, 382
 326, 526, 258, 237, 238
 327, 464,  60, 527, 216
 328, 480, 526,  83,  73
 329, 438, 472,  69, 439
 330, 465,  64, 469,  74
 331, 545, 526, 519,  84
 332, 506, 465, 526,  73
 333, 545, 526,  84,  83
 334, 523, 525, 285, 286
 335, 523, 285, 525, 306
 336, 523, 559, 525, 286
 337, 516, 294, 293, 273
 338, 523, 522, 306, 525
 339, 466,  17, 167, 156
 340, 534, 560, 525, 120
 341,  91,  81, 561, 551
 342, 111, 110, 522, 523
 343, 530, 343, 342, 322
 344, 300, 301, 536, 530
 345, 449, 167, 155, 156
 346, 103, 301, 528, 530
 347, 530, 473, 104, 320
 348, 530, 491, 342, 343
 349, 530, 491, 341, 342
 350, 501, 516, 293, 272
 351, 538,  99, 539, 109
 352, 500, 290, 538, 108
 353, 500, 539, 288, 560
 354, 534, 500, 331, 310
 355, 290, 501, 499, 291
 356, 450, 448, 449, 155
 357, 446, 447, 448, 154
 358, 446, 448, 425, 424
 359, 446,  16, 450, 166
 360, 468, 147, 156, 146
 361, 446, 166,  15,  16
 362, 511, 427, 180,  24
 363, 448, 144, 558, 145
 364, 448, 558, 144, 404
 365, 516, 532, 273, 272
 366, 516, 294, 273, 274
 367, 115, 338, 437, 474
 368, 483, 127, 497, 117
 369, 474, 106, 475, 295
 370, 516, 295, 106, 294
 371, 463, 489, 235, 519
 372, 461,  66,  75,  65
 373, 460, 189,   8,   7
 374,   8, 460, 458, 189
 375, 459, 209, 457, 230
 376, 562, 381, 401, 380
 377, 490,  76, 461, 232
 378, 232, 457, 498,  76
 379, 463, 233, 212, 213
 380, 476, 497, 337, 116
 381, 476, 315, 294, 474
 382, 476, 314, 293, 294
 383, 293, 476, 313, 314
 384, 476, 313, 314, 334
 385, 476, 497, 335, 336
 386, 484, 138, 485, 128
 387, 483, 484, 353, 354
 388, 476, 483, 117, 499
 389, 483, 497, 127, 356
 390, 476, 315, 335, 314
 391, 476, 117, 483, 497
 392, 511,  14, 163, 180
 393, 515, 362, 563, 383
 394, 558, 562, 135, 381
 395, 448, 558, 403, 402
 396, 448, 558, 404, 403
 397, 558, 383, 404, 403
 398, 515, 558, 383, 134
 399, 448, 558, 402, 145
 400, 558, 562, 402, 145
 401, 520, 276, 275, 255
 402, 518, 520,  95,  85
 403, 489, 490, 520,  85
 404, 459,  77,  67,  68
 405, 490, 498, 253,  86
 406, 475, 295, 274, 275
 407, 520, 532, 274,  96
 408, 520, 275, 254, 255
 409, 520, 253, 532,  86
 410, 490, 254, 520, 253
 411, 483, 485, 354, 355
 412, 483, 485, 484, 354
 413, 497, 517, 358, 126
 414, 483, 355, 356, 127
 415, 499, 291, 501, 292
 416, 499, 333, 312, 313
 417, 499, 333, 313, 334
 418, 562, 145, 136, 146
 419, 447, 154, 153, 144
 420, 476, 335, 483, 334
 421, 518, 520, 276,  95
 422, 518, 545, 278, 257
 423, 518, 277, 531, 276
 424, 531, 298, 277, 278
 425, 531, 278, 299, 298
 426, 475, 105, 531,  95
 427, 536, 531, 104,  94
 428, 531, 473, 297, 298
 429, 531, 473, 299, 104
 430, 194, 527, 431,   5
 431, 527, 194, 431,  61
 432, 506, 527, 217, 216
 433, 464, 193, 527,  60
 434, 511, 427,  25, 426
 435, 527,  61, 216,  60
 436, 350, 534, 477, 507
 437, 534, 130, 507, 129
 438, 508, 534, 500, 331
 439, 534, 525, 560, 308
 440, 534, 508, 351, 330
 441, 534, 120, 130, 129
 442, 436, 470, 535, 223
 443, 435, 470, 223, 224
 444, 486, 200, 201, 221
 445, 486, 198,  71,  13
 446, 487, 436, 486,  71
 447, 435, 224, 223, 203
 448, 508, 119, 128, 118
 449,  70,  12, 434, 488
 450, 486, 436,  70,  71
 451, 434, 435, 202, 203
 452, 557, 562, 379, 380
 453, 557, 126, 517, 136
 454, 557, 517, 379, 136
 455, 546, 230, 498, 251
 456, 546, 541, 227, 248
 457, 547, 251, 532, 272
 458, 547, 532,  97, 272
 459, 505, 152, 162, 161
 460, 547, 548, 249, 270
 461, 547, 532, 251,  87
 462, 502, 225, 439, 226
 463, 546, 249, 248, 228
 464, 513, 153, 163, 511
 465, 537, 502, 541, 247
 466, 546, 541, 548,  88
 467, 537, 541, 548, 247
 468, 151, 142, 141, 505
 469, 152, 151, 505, 142
 470, 556, 533, 368, 367
 471, 451, 556, 564, 390
 472, 556, 533, 141, 564
 473, 556, 369, 533, 564
 474, 457, 210, 230, 209
 475, 498, 232, 253, 252
 476, 477, 350, 349, 329
 477, 546, 498,  87, 251
 478, 546, 250, 229, 230
 479, 490, 498,  86,  76
 480, 498, 252, 231, 232
 481, 498, 532,  86,  87
 482, 251, 546, 547,  87
 483, 549, 360, 437, 339
 484, 557, 381, 380, 360
 485, 557, 125, 437, 126
 486, 339, 473, 338, 115
 487, 500, 118, 109, 119
 488, 474, 337, 316, 317
 489, 565, 367, 505, 387
 490, 337, 474, 476, 116
 491, 497, 358, 437, 126
 492, 497, 357, 336, 337
 493, 476, 337, 497, 336
 494, 517, 379, 378, 358
 495, 557, 379, 517, 358
 496, 497, 358, 517, 357
 497, 497, 356, 335, 336
 498, 497, 517, 127, 356
 499, 542, 377, 376, 356
 500, 542, 543, 147, 468
 501, 542, 543, 517, 137
 502, 550,  92, 479, 102
 503, 455, 482, 302, 454
 504, 455, 482, 281, 302
 505, 479, 455, 482, 281
 506, 521, 524, 522, 121
 507, 521, 524, 121, 443
 508, 477, 478, 507, 130
 509, 524, 477, 478, 348
 510, 563, 491, 124, 123
 511, 509, 563, 384, 383
 512, 563, 553, 133, 385
 513, 509, 552, 406, 385
 514, 509, 558, 404, 144
 515, 566, 471, 148, 494
 516, 566, 354, 485, 375
 517, 484, 354, 566, 374
 518, 484, 373, 566, 495
 519, 566, 485, 138, 544
 520, 483, 499, 333, 332
 521, 318, 338, 473, 474
 522, 457, 498,  77, 230
 523, 549, 340, 473, 341
 524, 549, 114, 491, 341
 525, 339, 318, 338, 473
 526, 473, 299, 319, 298
 527, 549, 473, 340, 339
 528, 473, 320, 341, 340
 529, 320, 299, 319, 473
 530, 549, 341, 491, 362
 531, 549, 437, 360, 125
 532, 538,  98, 548,  99
 533, 500, 332, 331, 311
 534, 539, 559, 287, 560
 535, 537, 548,  89,  99
 536, 538, 539, 268, 289
 537, 500, 309, 560, 288
 538, 500, 539, 560, 109
 539, 500, 538, 539, 109
 540, 529, 344, 364, 343
 541, 563, 491, 364, 363
 542, 563, 553, 385, 364
 543, 556, 367, 388, 505
 544, 563, 384, 363, 364
 545, 509, 385, 563, 133
 546, 497, 517, 126, 127
 547, 565, 553, 366, 387
 548, 529, 123, 553, 132
 549, 552, 143, 152, 133
 550, 552, 553, 385, 133
 551, 565, 142, 553, 387
 552, 552, 152, 142, 133
 553, 485, 137, 128, 138
 554, 566, 375, 374, 354
 555, 484, 566, 485, 138
 556, 441, 493, 510, 160
 557, 510, 176, 175,  21
 558,  21, 161, 510,  22
 559, 510,  22, 176,  21
 560, 510, 411,  40, 176
 561, 452, 410, 411, 176
 562, 478, 533, 369, 564
 563, 478, 507, 564, 370
 564, 477, 507, 478, 349
 565, 348, 524, 533, 478
 566, 547, 270, 249, 250
 567, 501, 270, 547, 271
 568, 501, 548, 538,  98
 569, 501, 547, 548,  98
 570, 548, 538, 269, 270
 571, 537, 538, 539, 268
 572, 537, 502, 246, 540
 573, 546, 548, 248, 249
 574, 537, 548, 268, 247
 575, 541, 548, 247, 248
 576, 467, 468, 419, 418
 577, 514, 417, 471, 171
 578, 471, 544, 148, 147
 579, 542, 468, 397, 398
 580, 471, 417, 397, 418
 581, 471, 396, 544, 397
 582, 472, 207, 187, 186
 583,  11, 472, 438, 185
 584, 546, 250, 547, 249
 585, 546, 229, 250, 249
 586, 476, 107, 116, 106
 587, 459,  78, 546,  77
 588, 456, 208, 186, 197
 589,  54, 456, 458, 188
 590, 459, 230, 229, 209
 591, 459,  77, 457,  67
 592, 459, 229, 208, 209
 593, 557, 562, 380, 381
 594, 557, 562, 136, 379
 595, 557, 359, 379, 358
 596, 542, 377, 543, 398
 597, 562, 449, 400, 401
 598, 400, 543, 468, 146
 599, 543, 562, 379, 136
 600, 508, 128, 119, 129
 601, 479, 281, 482, 280
 602, 479, 482, 455, 102
 603, 282, 550, 551, 479
 604, 453, 111, 521, 523
 605, 301, 536, 530, 103
 606, 550, 567, 455, 262
 607, 455, 482, 454, 112
 608, 565, 556, 505, 367
 609, 565, 533, 131, 141
 610, 458, 188,  66,   8
 611, 524, 443, 346, 565
 612, 529, 113, 491, 123
 613, 443, 529, 366, 132
 614, 565, 553, 142, 132
 615, 485, 138, 544, 137
 616, 542, 544, 485, 376
 617, 485, 375, 355, 376
 618, 471, 494, 395, 416
 619, 566, 148, 544, 138
 620, 514, 494, 471, 416
 621, 542, 471, 544, 397
 622, 551, 481, 241, 261
 623, 479, 261, 551, 282
 624, 538, 289, 268, 269
 625, 263, 561, 242, 551
 626, 532, 253, 274, 273
 627, 520, 532,  96,  86
 628, 459, 457,  77, 230
 629, 252, 532, 253, 498
 630, 501, 292, 291, 271
 631, 547, 271, 250, 251
 632, 460, 189,  56,  55
 633, 516, 293, 272, 273
 634,  97, 272, 501, 547
 635, 532, 273, 252, 253
 636, 498, 252, 532, 251
 637, 453, 567, 112, 111
 638, 523, 101, 567, 111
 639, 550, 455, 567, 102
 640, 453, 112, 455, 454
 641, 453, 454, 455, 303
 642, 550, 555, 101, 567
 643, 567, 112, 111, 102
 644, 481, 261, 240, 220
 645, 481, 239, 240, 260
 646, 479, 481, 480,  92
 647, 480,  73,  83,  92
 648, 432, 480, 481,  82
 649,  81, 561, 551, 487
 650, 487, 481, 220, 241
 651, 479, 545, 259, 280
 652, 551, 262, 282, 241
 653, 479, 281, 260, 261
 654, 241, 221, 487, 242
 655, 528, 482, 302, 301
 656, 454, 324, 444, 345
 657, 467,  32, 168, 170
 658, 138, 495, 148, 139
 659, 528, 454, 344, 323
 660, 513, 425, 426,  26
 661, 454, 323, 303, 324
 662, 453, 283, 284, 304
 663, 453, 521, 324, 304
 664, 523, 110, 559, 100
 665, 523, 555, 567, 101
 666, 453, 284, 523, 305
 667, 522, 111, 120, 110
 668, 477, 308, 328, 525
 669, 559, 555, 265, 523
 670, 523, 525, 559, 110
 671, 435, 223, 436, 202
 672, 554, 244, 470, 540
 673, 470, 244, 535, 223
 674, 502, 225, 246, 245
 675, 435, 470, 502,  79
 676, 505, 409, 452, 504
 677, 447, 427, 426, 406
 678, 447, 153, 512, 143
 679, 488, 182,  46, 181
 680, 505, 552, 408, 512
 681, 552, 143, 512, 152
 682, 503, 505, 512, 162
 683, 509, 447, 406, 143
 684, 429, 505, 512, 503
 685, 458,   8, 189, 188
 686,  66,   8, 460, 458
 687, 457, 461, 458,  66
 688, 210,  54, 456, 458
 689, 458,  55, 210,  54
 690, 189,  55, 460, 458
 691, 496, 507, 492, 139
 692, 507, 371, 492, 370
 693, 524, 131, 477, 121
 694, 534, 129, 507, 350
 695, 496, 351, 350, 129
 696, 507, 492, 139, 140
 697, 562, 449, 146, 400
 698, 450, 449, 423, 422
 699, 449, 402, 423, 422
 700, 562, 449, 402, 145
 701,  26, 446, 513, 425
 702, 449, 165, 422, 450
 703, 466,  18, 467, 168
 704, 399, 400, 543, 468
 705, 466, 421, 167, 169
 706, 466, 467, 157, 468
 707, 466, 400, 421, 420
 708, 545, 257, 526, 258
 709, 518, 520, 255, 276
 710, 463, 519,  74,  75
 711, 518,  84, 519,  85
 712, 507, 564, 492, 140
 713, 139, 492, 442, 149
 714, 492, 392, 493, 391
 715, 440, 494, 415, 414
 716, 492, 564, 150, 140
 717, 442, 394, 414, 393
 718, 440, 172, 514, 158
 719, 440,  19, 172, 158
 720, 468, 146, 449, 400
 721, 514, 471, 417, 416
 722, 442, 149, 494, 495
 723, 566, 373, 394, 495
 724, 566, 394, 373, 374
 725, 566, 544, 396, 375
 726, 566, 471, 395, 396
 727, 534, 308, 560, 309
 728, 534, 309, 330, 329
 729, 525, 287, 307, 286
 730, 525, 560, 110, 120
 731, 525, 560, 559, 110
 732, 537, 541,  89, 548
 733, 287, 525, 559, 286
 734, 565, 556, 367, 533
 735, 478, 533, 564, 141
 736, 478, 131, 140, 130
 737, 478, 533, 141, 131
 738, 565, 556, 533, 141
 739, 524, 347, 346, 326
 740, 524, 347, 327, 348
 741, 552, 553, 387, 386
 742, 533, 368, 347, 348
 743, 441, 510, 493, 412
 744, 493, 390, 564, 391
 745, 441, 175, 412, 413
 746, 510, 412, 411, 391
 747, 446, 425,  26,  27
 748, 392, 413, 393, 442
 749, 392, 413, 442, 493
 750, 445,   6, 464, 192
 751, 462, 463,  64,  65
 752, 489, 255, 234, 235
 753, 190,  64,   6,   7
 754, 469, 236, 235, 215
 755, 462, 463, 469,  64
 756, 465, 526,  73,  74
 757, 526, 519,  74, 469
 758, 529, 364, 491, 343
 759, 549, 515, 362, 124
 760, 549, 491, 124, 362
 761, 446, 425,  27, 424
 762, 530, 491, 114, 341
 763, 530, 321, 341, 320
 764, 549, 515, 361, 362
 765, 530, 491, 343, 113
 766, 320, 536, 299, 104
 767, 515, 563, 134, 383
 768, 549, 515, 360, 361
 769, 561, 242, 221, 222
 770, 487, 551, 481, 241
 771, 561, 222, 535, 243
 772, 529, 553, 364, 365
 773, 529, 345, 366, 365
 774, 324, 444, 345, 521
 775, 529, 122, 443, 345
 776, 524, 121, 443, 131
 777, 122, 443, 444, 121
 778, 524, 477, 522, 121
 779, 524, 533, 565, 346
 780, 453, 284, 305, 304
 781, 453, 523, 567, 111
 782, 521, 523, 522, 305
 783, 524, 348, 533, 347
 784, 122, 454, 345, 529
 785, 521, 111, 444, 121
 786, 444, 454, 345, 122
 787, 443, 131, 121, 122
 788, 521, 304, 325, 345
 789, 561, 555, 264, 554
 790, 470,  80, 535,  90
 791, 470, 223, 224, 244
 792, 554, 265, 264, 244
 793, 436, 535,  80,  81
 794, 535, 222, 223, 243
 795, 507, 140, 139, 130
 796, 478, 141, 564, 140
 797, 390, 510, 493, 451
 798, 478, 564, 369, 370
 799, 439, 225, 204, 205
 800, 434, 438, 435, 203
 801, 438, 185, 205, 183
 802, 546, 248, 227, 228
 803, 541, 227, 248, 247
 804, 541, 439,  79,  78
 805, 345, 444, 443, 521
 806, 205, 472, 206, 185
 807, 459, 228, 227, 207
 808, 459, 439,  78,  68
 809, 459, 227, 206, 207
 810, 554, 561, 535, 243
 811, 554, 540, 470,  90
 812, 540,  90,  99,  89
 813, 539, 266, 540, 267
 814, 265, 540, 554, 559
 815, 559,  99, 540, 100
 816, 564, 141, 150, 140
 817, 565, 387, 366, 346
 818, 521, 524, 443, 325
 819, 524, 533, 346, 347
 820, 566, 495, 148, 138
 821, 484, 495, 138, 139
 822, 443, 565, 131, 132
 823, 565, 346, 367, 387
 824, 565, 132, 142, 141
 825, 372, 371, 442, 496
 826, 565, 553, 132, 366
 827, 524, 346, 443, 325
 828, 534, 330, 350, 329
 829, 453, 283, 304, 324
 830, 455, 482, 112, 102
 831, 536, 545, 279, 278
 832, 451, 410, 389, 390
 833, 511,  24, 180, 163
 834, 451, 556, 390, 389
 835, 451, 510, 151, 161
 836, 555, 263, 264, 284
 837, 451, 410, 409, 389
 838, 494, 442, 414, 440
 839, 179, 503, 504, 409
 840, 408, 429, 505, 512
 841, 492, 391, 493, 564
 842, 550, 555,  91, 101
 843, 264, 561, 243, 263
 844, 162, 180, 153, 512
 845, 177,  42, 179, 504
 846, 455, 262, 283, 303
 847, 556, 368, 369, 389
 848, 556, 390, 389, 369
 849, 537, 268, 267, 247
 850, 510, 151, 161, 160
 851, 265, 559, 266, 540
 852, 429, 178, 179, 503
 853, 451, 151, 505, 161
 854, 432,  82,  72,  63
 855, 432,  73, 506, 480
 856, 500, 560, 119, 109
 857, 432, 219, 433, 240
 858, 432, 433, 481, 240
 859, 537, 502,  89, 541
 860, 486, 200, 220, 199
 861, 505, 552, 387, 408
 862, 497, 126, 437, 116
 863, 445, 462, 214, 469
 864, 481, 261, 220, 241
 865, 430, 195, 198, 199
 866, 486, 201, 222, 221
 867, 444, 122, 121, 112
 868, 436, 201, 202, 222
 869, 444, 454, 122, 112
 870, 528, 322, 301, 302
 871, 531,  95, 105, 104
 872, 487, 436, 561, 222
 873, 453, 444, 324, 521
 874, 430,  71, 198,   1
 875, 506, 218, 239, 238
 876, 265, 523, 286, 559
 877, 483, 118, 128, 127
 878, 430, 433, 432, 219
 879, 486, 199,  44, 200
 880, 487, 561, 436,  81
 881, 553, 386, 365, 366
 882, 434, 438,  11,  69
 883, 445, 465, 469, 215
 884,  71,  72, 433, 487
 885, 222, 487, 486, 221
 886, 550, 567, 101, 102
 887, 263, 555, 264, 561
 888, 430, 196,   1, 195
 889, 433, 220, 486, 487
 890, 487, 551,  82, 481
 891, 550, 555, 263, 551
 892, 553, 387, 386, 366
 893, 487,  82, 551,  81
 894, 443, 122, 132, 131
 895, 443, 444, 121, 521
 896, 463, 461, 212, 233
 897, 131, 477, 478, 524
 898, 463, 213, 234, 233
 899, 463, 234, 489, 233
 900, 518, 531, 278,  94
 901, 435,  69,  70,  79
 902, 515, 558, 135, 381
 903, 551, 242, 262, 241
 904, 149, 139, 148, 495
 905, 554, 470, 244, 535
 906, 470,  90,  89,  80
 907, 542, 517, 485, 137
 908, 540, 266, 265, 245
 909, 551,  82,  91,  81
 910, 555, 561, 551,  91
 911, 508, 352, 332, 353
 912, 453, 521, 305, 523
 913, 508, 484, 129, 496
 914, 129, 508, 351, 534
 915, 525, 286, 306, 285
 916, 560, 287, 525, 559
 917, 529, 365, 344, 345
 918, 443, 122, 529, 132
 919, 517, 357, 378, 377
 920, 525, 560, 308, 287
 921, 451, 556, 389, 388
 922, 543, 136, 137, 146
 923, 542, 468, 147, 471
 924, 521, 522, 111, 121
 925, 483, 354, 333, 334
 926, 511, 447, 153, 512
 927, 484, 353, 373, 352
 928, 566, 494, 495, 394
 929, 484, 566, 373, 374
 930, 507, 349, 350, 370
 931, 508, 483, 128, 484
 932, 529, 553, 365, 366
 933, 477, 478, 348, 349
 934, 508, 484, 128, 129
 935, 307, 308, 525, 328
 936, 484, 566, 354, 485
 937, 552, 406, 386, 407
 938, 429, 503, 512, 178
 939, 485, 375, 354, 355
 940, 544, 138, 148, 147
 941, 507, 492, 564, 370
 942, 544, 137, 138, 147
 943, 509, 405, 385, 406
 944, 509, 563, 134, 133
 945, 492, 149, 140, 150
 946, 496, 351, 371, 350
 947, 468, 398, 418, 397
 948, 110, 522, 523, 525
 949, 539, 559, 560, 109
 950,  43, 199, 198, 195
 951, 523, 305, 285, 306
 952, 523, 101, 111, 110
 953, 431,  62, 218, 217
 954, 430, 432, 433,  72
 955, 182,  46, 434, 488
 956, 554, 555, 101,  91
 957, 555, 567, 263, 284
 958, 414,  37, 415, 174
 959, 452, 176, 177,  41
 960, 422, 165,  29, 423
 961, 562, 449, 401, 402
 962, 420, 468, 466, 400
 963, 466, 420, 421, 169
 964, 421, 169, 420,  31
 965, 466,  32, 419, 420
 966, 419, 170, 418,  33
 967, 467, 418, 419, 170
 968, 471, 418, 171, 417
 969, 471, 397, 417, 396
 970, 514,  35, 417,  34
 971, 471, 416, 395, 396
 972, 514, 416, 417,  35
 973, 173, 440, 414, 441
 974, 514, 416,  35, 172
 975, 494, 395, 415, 394
 976, 414, 494, 415, 394
 977, 440, 414, 415, 174
 978, 414, 413,  38, 173
 979, 441, 413, 414, 173
 980, 441, 159, 150, 160
 981, 413,  39,  38, 175
 982, 493, 392, 413, 412
 983, 510, 160, 161,  21
 984, 566, 471, 544, 148
 985,  22,   2, 504, 177
 986, 447, 406, 426, 405
 987, 524, 326, 346, 325
 988, 488, 201,  45,  46
 989, 512, 503, 162, 180
 990,   3, 179, 409, 429
 991, 524, 443, 565, 131
 992, 180, 503, 162,   2
 993, 429, 178, 428,  23
 994, 429,  23,   3, 178
 995, 567, 283, 455, 262
 996, 447, 425, 404, 405
 997, 447, 426, 425, 405
 998, 513, 164,  26, 163
 999, 509, 404, 558, 383
1000, 447, 406, 512, 427
1001, 447, 144, 448, 154
1002, 446, 164,  27,  26
1003, 450,  28, 166, 165
1004, 558, 402, 562, 381
1005, 448, 423, 402, 403
1006, 449, 421, 400, 401
1007, 448, 145, 154, 144
1008, 422, 167,  29, 165
1009, 165,  29, 423,  28
1010, 528, 113, 122, 103
1011, 468, 420, 419, 399
1012, 421,  30, 167, 169
1013, 446,  27, 164, 166
1014, 543, 400, 399, 379
1015, 468, 400, 420, 399
1016, 468, 449, 146, 156
1017, 542, 398, 397, 377
1018, 544, 397, 396, 376
1019, 543, 468, 146, 147
1020, 468, 147, 471, 157
1021, 418, 417,  34, 171
1022, 419,  33,  32, 170
1023, 471, 148, 158, 157
1024, 440, 158, 514, 494
1025, 494, 416, 415, 395
1026, 450, 424,  28, 423
1027, 415, 172,  36, 416
1028, 514,  34, 171,  35
1029, 172, 416,  35,  36
1030, 522, 111, 121, 120
1031, 510, 493, 391, 390
1032, 414,  37, 174, 173
1033, 440, 441, 442, 414
1034, 564, 390, 370, 391
1035, 414, 441, 442, 413
1036, 510,  39, 175, 176
1037, 510,  40, 412,  39
1038, 175, 412, 413,  39
1039, 510, 411, 390, 391
1040, 510,  39, 176,  40
1041, 537, 267, 246, 247
1042, 559, 286, 266, 287
1043, 505, 142, 552, 152
1044, 466, 449, 167, 421
1045, 559, 560, 109, 110
1046, 528, 343, 322, 323
1047, 551, 550, 262, 263
1048, 539, 559, 109,  99
1049, 551, 555, 263, 561
1050, 509, 563, 385, 384
1051, 509, 405, 384, 385
1052, 563, 123, 553, 364
1053, 446,  27, 450, 424
1054, 539, 267, 268, 288
1055, 515, 383, 382, 362
1056, 563, 384, 383, 363
1057, 513, 163,  15, 164
1058, 432,  63, 506,  73
1059, 558, 402, 382, 403
1060, 448, 424, 423, 403
1061, 558, 402, 381, 382
1062, 557, 360, 380, 359
1063, 400, 468, 466, 449
1064, 562, 381, 402, 401
1065, 543, 562, 136, 146
1066, 515, 124, 563, 362
1067, 517, 358, 378, 357
1068, 543, 379, 399, 378
1069, 557, 380, 379, 359
1070, 550, 555, 551,  91
1071, 466, 468, 156, 449
1072, 566, 485, 544, 375
1073, 542, 356, 376, 355
1074, 550, 479, 282, 455
1075, 542, 485, 355, 376
1076, 542, 137, 544, 147
1077, 566, 494, 394, 395
1078, 466, 468, 420, 419
1079, 172, 440, 415, 174
1080, 566, 375, 395, 374
1081,  37, 415, 174,  36
1082, 494, 149, 158, 148
1083, 479, 455, 281, 282
1084, 441, 159, 149, 150
1085, 567, 555, 263, 550
1086, 478, 507, 370, 349
1087, 409, 452, 504,  42
1088, 510, 412,  40, 411
1089, 451, 556, 151, 564
1090, 451, 409, 388, 389
1091, 554, 535, 561,  91
1092, 552, 386, 387, 407
1093, 181, 488, 486,  45
1094, 553, 385, 364, 365
1095, 529, 553, 123, 364
1096, 443, 346, 565, 366
1097, 491, 343, 363, 342
1098, 491, 364, 363, 343
1099, 563, 491, 362, 124
1100, 549, 362, 361, 341
1101, 450, 448, 424, 423
1102, 549, 340, 360, 339
1103, 549, 361, 360, 340
1104, 562, 400, 379, 380
1105, 437, 359, 358, 338
1106, 563, 383, 362, 363
1107, 437, 339, 359, 338
1108, 557, 562, 381, 135
1109, 515, 125, 557, 135
1110, 497, 357, 356, 336
1111, 508, 332, 483, 353
1112, 497, 517, 356, 357
1113, 484, 353, 354, 374
1114, 483, 355, 334, 335
1115, 517, 485, 137, 127
1116,  19, 171, 172, 158
1117, 484, 139, 496, 495
1118, 566, 471, 396, 544
1119, 557, 437, 358, 126
1120, 496, 507, 350, 371
1121, 517, 355, 485, 127
1122, 508, 353, 483, 484
1123, 351, 330, 508, 331
1124, 508, 352, 351, 331
1125, 485, 376, 544, 375
1126, 539, 559,  99, 540
1127, 478, 507, 130, 140
1128, 537, 502, 247, 246
1129, 441, 413, 173, 175
1130, 554, 559, 555, 265
1131, 455, 454, 302, 303
1132, 408, 429, 388, 505
1133, 524, 477, 348, 327
1134, 456, 197,   9, 188
1135, 533, 347, 367, 346
1136, 554,  90, 470, 535
1137, 442, 494, 149, 159
1138, 478, 369, 533, 348
1139,  42, 179, 409,   3
1140, 563, 364, 385, 384
1141, 477, 121, 131, 130
1142, 565, 533, 367, 346
1143, 554, 535, 244, 243
1144, 553, 142, 132, 123
1145, 443, 325, 366, 345
1146, 503, 180, 512, 178
1147, 509, 143, 552, 133
1148, 454, 345, 344, 324
1149, 529, 132, 553, 366
1150, 554,  90,  91, 100
1151, 530, 322, 342, 321
1152, 530, 341, 473, 320
1153, 491, 363, 362, 342
1154, 515, 362, 382, 361
1155, 563, 491, 363, 362
1156, 549, 473, 339, 115
1157, 515, 557, 381, 135
1158, 549, 491, 114, 124
1159, 317, 318, 474, 338
1160, 562, 401, 400, 380
1161, 491, 362, 341, 342
1162, 543, 379, 517, 136
1163, 557, 358, 437, 359
1164, 543, 562, 146, 400
1165, 549, 115, 437, 125
1166, 476, 314, 335, 334
1167, 497, 437, 358, 337
1168, 565, 141, 131, 132
1169, 483, 127, 117, 118
1170, 483, 485, 127, 128
1171, 540, 266, 245, 246
1172, 471, 148, 494, 158
1173, 476, 497, 483, 335
1174, 484, 495, 566, 138
1175, 496, 507, 371, 492
1176, 534, 500, 310, 309
1177, 477, 349, 348, 328
1178, 500, 311, 331, 310
1179, 542, 471, 147, 544
1180, 534, 331, 330, 310
1181, 534, 330, 309, 310
1182, 477, 507, 349, 350
1183, 448, 424, 403, 404
1184, 176,  41, 411,  40
1185, 533, 367, 347, 368
1186, 550, 551,  92,  91
1187, 556, 564, 141, 151
1188, 525, 306, 307, 327
1189, 443, 565, 132, 366
1190, 434, 436, 488, 202
1191, 443, 366, 325, 346
1192, 553, 365, 386, 385
1193, 521, 345, 324, 304
1194, 443, 366, 529, 345
1195, 528, 113, 529, 122
1196, 563, 364, 491, 123
1197, 529, 528, 454, 344
1198, 492, 371, 391, 370
1199, 528, 323, 322, 302
1200, 453, 283, 324, 303
1201, 453, 567, 523, 284
1202, 505, 408, 367, 388
1203, 521, 325, 443, 345
1204, 528, 343, 529, 113
1205, 528, 103, 530, 113
1206, 301, 321, 530, 300
1207, 299, 104, 473, 320
1208, 549, 341, 361, 340
1209, 474, 338, 337, 317
1210, 549, 341, 473, 114
1211, 437, 358, 337, 338
1212, 563, 553, 123, 133
1213, 297, 473, 474, 318
1214, 473, 319, 318, 298
1215, 473, 318, 297, 298
1216, 557, 358, 517, 126
1217, 449, 421, 422, 167
1218, 474, 115, 473, 105
1219, 517, 377, 356, 357
1220, 316, 337, 474, 476
1221, 295, 474, 106, 294
1222, 449, 400, 421, 466
1223, 313, 293, 292, 107
1224, 476, 106, 516, 107
1225, 476, 313, 499, 107
1226, 499, 332, 311, 312
1227, 531, 105, 473, 104
1228, 483, 334, 355, 354
1229, 351, 534, 350, 129
1230, 515, 125, 134, 124
1231, 495, 373, 442, 496
1232, 499, 292, 312, 291
1233, 508, 332, 500, 118
1234, 311, 500, 332, 499
1235, 560, 288, 309, 308
1236, 500, 288, 289, 309
1237, 534, 560, 120, 119
1238, 500, 538, 109, 108
1239, 329, 350, 534, 477
1240, 525, 306, 286, 307
1241, 525, 328, 327, 307
1242, 524, 131, 565, 533
1243, 488, 436,  70, 486
1244, 522, 305, 306, 326
1245, 521, 524, 325, 326
1246, 103, 112, 528, 482
1247, 528, 530, 343, 113
1248, 528, 482, 454, 302
1249, 454, 344, 323, 324
1250, 482, 302, 301, 281
1251, 567, 102, 455, 112
1252, 488, 486, 201, 436
1253, 530, 473, 341, 114
1254, 473, 340, 339, 319
1255, 301, 528, 530, 322
1256, 536, 301, 300, 280
1257, 536, 300, 279, 280
1258, 536, 530, 103, 104
1259, 536, 530, 320, 300
1260, 300, 536, 299, 320
1261, 530, 321, 320, 300
1262, 536, 482,  93, 103
1263, 536,  93, 545,  94
1264, 475, 531, 297, 276
1265, 509, 133, 552, 385
1266, 475, 296, 295, 275
1267, 476, 474, 106, 116
1268, 516, 475,  96, 106
1269, 475, 276, 297, 296
1270, 474, 297, 318, 317
1271, 558, 135, 562, 145
1272, 501, 107, 516,  97
1273, 154,  15, 446, 513
1274, 543, 379, 562, 400
1275, 290, 501, 270, 538
1276, 515, 382, 381, 361
1277, 272, 501, 547, 271
1278, 501, 271, 291, 270
1279, 476, 117, 116, 107
1280, 108, 500, 290, 499
1281, 500, 290, 311, 310
1282, 499, 500, 290, 311
1283, 537, 548, 538, 268
1284, 270, 538, 269, 290
1285, 437, 115, 116, 125
1286, 485, 137, 127, 128
1287, 500, 310, 289, 290
1288, 499, 118, 117, 108
1289, 534, 119, 500, 560
1290, 553, 142, 123, 133
1291, 452,  42,  41, 177
1292, 446, 450, 448, 424
1293, 559, 540, 554, 100
1294, 537, 540,  99,  89
1295, 483, 333, 354, 353
1296, 534, 525, 477, 120
1297, 523, 567, 555, 284
1298, 285, 523, 286, 265
1299, 534, 560, 500, 309
1300, 534, 120, 477, 130
1301, 524, 522, 477, 327
1302, 523, 555, 101, 100
1303, 560, 110, 120, 119
1304, 451, 510, 452, 411
1305, 523, 305, 284, 285
1306, 533, 369, 368, 348
1307, 559,  99, 100, 109
1308, 521, 325, 304, 305
1309, 528, 344, 343, 323
1310, 510, 412, 175,  39
1311, 503, 429, 409, 179
1312, 455, 302, 282, 303
1313, 528, 302, 454, 323
1314, 482, 301, 280, 281
1315, 479, 482,  93, 280
1316, 479, 102,  92,  83
1317, 479, 282, 281, 261
1318, 455, 302, 281, 282
1319, 536, 280, 545,  93
1320, 479, 480, 259,  83
1321, 322, 321, 530, 301
1322, 536, 299, 278, 279
1323, 473, 339, 318, 319
1324, 529, 123, 132, 113
1325, 368, 556, 367, 388
1326, 531, 277, 297, 276
1327, 518, 257, 277, 256
1328, 531, 298, 297, 277
1329, 519,  84,  75,  85
1330, 518, 545,  84,  94
1331, 491, 123, 113, 114
1332, 475, 276, 520,  95
1333, 520, 275, 274, 254
1334, 489, 255, 520, 254
1335, 476, 336, 315, 316
1336, 475, 106, 105,  96
1337, 475, 105,  95,  96
1338, 520, 274, 532, 253
1339, 475, 520, 274,  96
1340, 516, 475, 274,  96
1341, 476, 315, 314, 294
1342, 475, 520, 276, 275
1343, 516, 274, 532,  96
1344, 546, 541, 248, 548
1345, 250, 251, 546, 547
1346, 501, 538, 108,  98
1347, 516, 532, 272,  97
1348, 547, 250, 271, 270
1349, 548, 269, 248, 249
1350, 534, 309, 329, 308
1351, 538, 269, 290, 289
1352, 546, 548, 547,  88
1353, 501, 270, 291, 290
1354, 500, 310, 309, 289
1355, 508, 128, 483, 118
1356, 474, 115, 106, 116
1357,  21, 510, 441, 175
1358, 329, 308, 328, 477
1359, 525, 287, 308, 307
1360, 488,  12, 434, 182
1361, 477, 348, 327, 328
1362, 477, 120, 121, 130
1363, 523, 555, 285, 284
1364, 567, 263, 283, 262
1365, 441,  20, 159, 160
1366, 453, 444, 521, 111
1367, 554, 265, 555, 264
1368, 545, 259, 279, 258
1369, 479, 259, 545,  83
1370, 545, 259, 526,  83
1371, 480, 259, 238, 239
1372, 545, 258, 278, 257
1373, 526, 519, 469, 236
1374, 465, 526, 236, 237
1375, 506, 238, 526, 237
1376, 518, 278, 531, 277
1377, 526, 519,  84,  74
1378, 549, 125, 124, 115
1379, 170, 471, 171, 157
1380, 489, 520, 518,  85
1381, 489, 519, 256, 235
1382, 526, 237, 257, 236
1383, 476, 516, 293, 107
1384, 520, 274, 253, 254
1385, 520,  95,  85,  86
1386, 532, 273, 272, 252
1387, 490, 253, 498, 232
1388, 490, 520,  86, 253
1389, 557, 437, 360, 359
1390, 107, 293, 476, 313
1391, 516, 274, 475, 295
1392, 516,  96, 532,  97
1393, 497, 117, 127, 126
1394, 501, 547, 270, 548
1395, 229, 546, 230, 459
1396, 546, 230, 459,  77
1397, 476, 334, 499, 313
1398, 498, 252, 251, 231
1399, 563, 133, 124, 134
1400, 538, 501, 270, 548
1401, 547,  88, 548,  98
1402, 500, 539, 289, 288
1403, 539, 268, 289, 288
1404, 537, 268, 539, 267
1405, 541,  89, 548,  88
1406, 541, 439,  78, 227
1407, 108, 290, 501, 499
1408, 559, 100, 110, 109
1409, 227, 546, 459,  78
1410, 560, 287, 288, 308
1411, 542, 544, 376, 397
1412, 470,  90, 540,  89
1413, 502, 226, 246, 225
1414, 560, 110, 119, 109
1415, 502, 245, 470, 224
1416, 435,  70, 436,  80
1417, 535, 244, 243, 223
1418, 502, 470, 540,  89
1419, 554, 561, 555,  91
1420, 554, 535,  91,  90
1421, 436, 223, 535, 222
1422, 476, 499, 117, 107
1423, 487, 561, 221, 222
1424, 243, 561, 242, 263
1425, 551, 261, 241, 282
1426, 453, 112, 567, 455
1427, 550, 479, 455, 102
1428, 207,  51, 187, 186
1429, 525, 327, 477, 522
1430, 536, 482, 280,  93
1431, 480, 260, 259, 239
1432, 506, 480, 526, 238
1433, 506, 526, 480,  73
1434, 506,  63, 465,  73
1435, 465,  73,  63,  64
1436, 506, 217, 237, 216
1437, 518, 545,  94, 278
1438, 465, 236, 216, 237
1439, 518, 545, 257, 519
1440, 518, 277, 276, 256
1441, 545,  93,  83,  84
1442, 445, 192, 464,  59
1443, 463, 213, 214, 234
1444, 460, 461, 463,  65
1445, 547, 532,  87,  97
1446, 457, 461,  66,  76
1447, 294, 474, 106, 476
1448, 490,  86, 520,  85
1449, 490, 253, 232, 233
1450, 498, 532,  87, 251
1451, 457, 461, 211, 458
1452, 546, 498,  77,  87
1453, 457, 231, 230, 210
1454, 516, 107, 106,  97
1455, 516, 532, 274, 273
1456, 516, 475, 106, 295
1457, 498, 251, 230, 231
1458, 474, 116, 437, 115
1459, 474, 317, 316, 296
1460, 516, 295, 294, 274
1461, 501, 547,  98,  97
1462, 459,  78, 439, 227
1463, 541, 226, 439, 227
1464, 539, 267, 288, 287
1465, 502, 541,  79,  89
1466, 546, 227, 541,  78
1467, 557, 136, 135, 126
1468, 435,  80, 436, 470
1469, 472, 207, 459, 206
1470, 502, 541, 439,  79
1471, 418,  33, 171,  34
1472, 502,  79, 470,  89
1473, 561, 242, 551, 487
1474, 554, 540, 265, 244
1475, 435, 502, 224, 225
1476,  71, 486,  13,  70
1477, 487, 436,  71,  81
1478, 555, 264, 265, 285
1479, 551, 481,  92,  82
1480, 242, 221, 487, 561
1481, 561, 242, 222, 243
1482, 551, 263, 262, 242
1483, 431, 432,  72,  63
1484, 487, 241, 220, 221
1485, 432, 240, 239, 219
1486,  62,  61, 217, 431
1487, 218, 430, 219, 196
1488, 527, 217, 216,  61
1489, 430,  72, 433,  71
1490, 527, 193, 194,  61
1491, 518, 256, 519, 257
1492, 536, 545, 280, 279
1493, 519, 256, 236, 257
1494, 526, 519, 236, 257
1495, 526,  83,  73,  74
1496, 445, 215, 214,  59
1497, 518, 276, 255, 256
1498, 489,  85, 519,  75
1499, 445,  58, 190, 192
1500, 475, 531, 276,  95
1501, 526, 258, 257, 237
1502, 501, 272, 293, 292
1503, 213, 212, 191,  57
1504, 460, 461, 211, 212
1505, 231, 232, 457, 498
1506, 531, 297, 473, 105
1507, 456, 458, 188,  66
1508, 457, 211, 231, 210
1509, 532, 272, 251, 252
1510, 546, 229, 249, 228
1511, 552, 387, 408, 407
1512, 456, 209, 459, 208
1513, 228, 227, 546, 459
1514, 207, 206, 187,  51
1515, 537,  99, 538, 548
1516, 541, 227, 247, 226
1517, 459, 439, 206, 227
1518, 459, 208, 207, 186
1519, 448, 423, 449, 402
1520, 456, 459, 457,  67
1521, 438, 205, 439, 204
1522, 208,  53,  52, 197
1523, 502, 224, 225, 245
1524, 207, 186,  52,  51
1525, 500, 538, 289, 539
1526, 555, 264, 285, 284
1527, 435, 204, 224, 203
1528, 538, 548, 269, 268
1529, 521, 522, 326, 305
1530,  49, 185, 205,  50
1531, 434,  47, 182, 184
1532, 453, 521, 304, 305
1533, 488, 202, 201,  46
1534, 449, 422, 421, 401
1535, 486, 200,  44,  45
1536, 486, 181,  12, 488
1537, 434, 203, 202,  47
1538, 551,  82,  92,  91
1539, 486, 220, 200, 221
1540, 430,  71, 486, 198
1541, 436,  71,  81,  80
1542, 455, 282, 262, 303
1543, 477, 349, 328, 329
1544,  44, 199, 198,  43
1545, 432,  82, 433,  72
1546, 481, 261, 260, 240
1547, 567, 263, 284, 283
1548, 195, 199, 219,  43
1549, 432, 480, 239, 481
1550,  62, 194, 431, 196
1551, 456, 186, 459,  67
1552, 517, 137, 136, 127
1553, 548, 269, 268, 248
1554, 210, 209, 456,  54
1555, 197,  53, 456, 208
1556, 459, 208, 229, 228
1557, 456,  53, 197, 188
1558,  61, 194, 431,  62
1559, 218, 196,   4,  62
1560, 430, 199, 486, 433
1561, 433, 199, 220, 240
1562,  13,  71,   1, 198
1563, 431, 506, 217, 218
1564, 219,  43,   4, 195
1565, 430, 198, 195,   1
1566, 432, 239, 218, 219
1567, 432, 481, 239, 240
1568, 527,  63,   5, 193
1569,  82,  81, 487,  72
1570, 430, 199, 219, 195
1571, 464,  60, 215,  59
1572, 445, 462, 469,  64
1573, 430,   1, 431,  72
1574, 463, 235, 234, 214
1575, 100, 559, 555, 554
1576, 462, 214, 463, 213
1577,  58, 462, 445, 190
1578, 464, 216, 215,  60
1579, 430, 196, 431,   1
1580, 445,  64, 464,   6
1581, 431,  61, 217, 527
1582,  64, 464,   6,  63
1583, 489, 520, 490, 254
1584, 545, 279, 278, 258
1585, 206, 185,  50, 205
1586, 212,  57,  56, 191
1587, 442, 371, 372, 392
1588, 437, 360, 359, 339
1589, 198, 486, 199,  44
1590, 462,  57, 190,  58
1591, 460, 462,   7,  65
1592, 464,  59, 192, 193
1593, 475, 297, 531, 105
1594, 515, 125, 135, 134
1595, 490,  85,  75,  76
1596, 466, 467,  32, 168
1597, 445,   6, 192, 190
1598, 204,  48, 183,  49
1599, 538, 109, 108,  99
1600, 466, 167, 449, 156
1601,   7, 462, 190,  64
1602, 472, 459, 186,  68
1603, 462,  65,  64,   7
1604, 449, 402, 422, 401
1605, 460, 461,  65,  66
1606, 501, 108, 107,  98
1607, 286, 559, 266, 265
1608, 548, 249, 270, 269
1609,  54, 209, 456,  53
1610, 457, 232, 231, 211
1611, 141, 505, 556, 151
1612, 539, 559, 540, 266
1613, 554, 264, 243, 244
1614, 458,  54, 188,  55
1615, 185, 472, 206, 187
1616, 438, 204, 203,  48
1617, 550, 455, 282, 262
1618, 487,  72, 433,  82
1619, 472,  69, 439,  68
1620,  69,  11, 472, 438
1621, 298, 531, 473, 299
1622, 464,  59, 193,  60
1623, 431,   5,   1, 194
1624, 489, 234, 255, 254
1625, 527,  60, 193,  61
1626, 488, 202, 436, 201
1627, 430, 432, 218, 219
1628, 530, 114, 491, 113
1629, 432, 481, 433,  82
1630,  92, 479, 481, 551
1631, 205, 185,  49, 183
1632, 438, 435, 203, 204
1633, 430,  71,   1,  72
1634, 431,  72,   1,   5
1635, 503, 504, 162,   2
1636, 557, 360, 437, 125
1637, 151, 510, 493, 160
1638, 434,  47, 202,  46
1639, 456,  67, 457,  66
1640, 465, 236, 215, 216
1641, 434,  47, 438, 203
1642, 439, 227, 226, 206
1643, 435,  70,  80,  79
1644, 472, 187, 185,  10
1645, 452,  42, 410,  41
1646, 481, 479, 261, 551
1647, 435, 225, 224, 204
1648, 436, 222, 202, 223
1649, 438, 435, 439,  69
1650, 540, 100,  99,  90
1651, 434, 184, 438,  47
1652, 438,  48,  47, 184
1653, 208, 207, 186,  52
1654, 488, 486,  70,  12
1655, 451, 388, 505, 556
1656, 431, 217, 506, 527
1657, 505, 142, 141, 565
1658, 472,  11,  68,  10
1659,  14, 180, 153,   2
1660, 510, 391, 493, 412
1661, 536, 300, 299, 279
1662, 442, 441, 149, 493
1663, 465,  74,  73,  64
1664, 528, 529, 343, 344
1665, 488, 181,  46,  45
1666,  13, 181,  12, 486
1667, 182, 181, 488,  12
1668, 489, 235, 256, 255
1669, 454, 323, 302, 303
1670, 567, 101, 102, 111
1671, 196, 430, 219, 195
1672, 434,  46, 182,  47
1673, 434,  70,  69,  12
1674, 502, 246, 540, 245
1675,  24,  23, 428, 180
1676, 456,   9,  67,  66
1677, 511, 447, 427, 426
1678, 519, 235, 469, 236
1679, 196,  62, 218, 431
1680, 193,   5,   6,  63
1681, 445, 469, 214, 215
1682, 512, 406, 407, 427
1683, 452,  42, 409, 410
1684, 523, 555, 265, 285
1685, 518, 545, 519,  84
1686, 409, 503, 505, 429
1687, 489, 518, 519,  85
1688,  64, 462, 190, 445
1689, 460, 191, 189,   7
1690, 463, 469,  64,  74
1691, 463, 519, 469,  74
1692, 519, 235, 236, 256
1693, 557, 126, 135, 125
1694, 462,  57, 191, 190
1695, 505, 429, 388, 409
1696, 460,   8,  66,  65
1697,   2, 180, 153, 162
1698, 151, 451, 564, 493
1699, 503, 505, 162, 504
1700, 503, 178,   2, 180
1701,  55, 460, 458, 211
1702, 493, 151, 150, 564
1703, 456,  67,   9, 186
1704, 460, 212, 211,  56
1705, 461, 232, 211, 212
1706, 464,   6,  63, 193
1707, 558, 135, 145, 144
1708, 441, 510, 412, 175
1709, 451, 452, 505, 409
1710, 461,  66,  76,  75
1711, 460,   7,   8,  65
1712, 464,   6, 193, 192
1713, 524, 347, 326, 327
1714, 489, 490, 233, 254
1715, 472, 439, 459,  68
1716, 462, 463, 214, 469
1717, 458, 188, 189,  55
1718, 459, 186,  68,  67
1719, 457, 461,  76, 232
1720, 526, 259, 258, 238
1721, 160, 151, 150, 493
1722, 498,  77,  87,  86
1723, 431, 432, 506, 218
1724, 160,  21, 510, 441
1725, 464, 465, 216, 527
1726, 176,  41, 410, 411
1727, 564, 369, 370, 390
1728, 496, 373, 372, 352
1729, 178, 429, 428, 512
1730, 514,  35, 171, 172
1731,  68,  10,  67, 186
1732, 490, 254, 253, 233
1733, 174, 173, 440, 414
1734, 413, 442, 493, 441
1735,   8, 188,  66,   9
1736, 457,  67,  77,  76
1737, 413, 173, 175,  38
1738, 442, 392, 492, 371
1739, 484, 353, 374, 373
1740,  10,  67, 186,   9
1741, 493, 451, 564, 390
1742, 566, 374, 395, 394
1743, 472,  10,  68, 186
1744, 440, 514, 416, 494
1745, 438,  48, 184, 183
1746, 440, 494, 159, 158
1747, 542, 376, 377, 397
1748, 438, 205, 204, 183
1749, 468, 398, 419, 418
1750, 418, 471, 171, 170
1751, 514, 417, 171,  34
1752, 566, 375, 396, 395
1753, 445, 464,  64, 465
1754, 440, 441,  20, 159
1755, 508, 496, 351, 352
1756, 471, 171, 157, 158
1757, 505, 387, 367, 408
1758, 467, 157, 170,  18
1759, 434,  12,  69,  11
1760, 499, 333, 332, 312
1761, 475, 520,  96,  95
1762, 503, 504,   2, 179
1763, 474, 105, 475, 106
1764, 472,  69,  68,  11
1765, 557, 136, 562, 135
1766, 439,  78,  68,  69
1767, 466, 168, 169,  17
1768, 543, 517, 378, 377
1769, 486,  45,  44, 181
1770, 466, 156, 468, 157
1771, 543, 147, 146, 137
1772, 466,  31, 169, 168
1773, 421,  31,  30, 169
1774, 422,  29, 167,  30
1775,  12, 486,  70,  13
1776, 435, 202, 203, 223
1777, 435, 470,  79,  80
1778, 167,  16, 165, 155
1779, 179, 504,   2, 177
1780, 466, 157,  18,  17
1781, 468, 147, 157, 156
1782, 509, 563, 383, 134
1783, 504, 162,   2,  22
1784, 496, 372, 371, 351
1785, 428, 180, 178, 512
1786, 436,  71,  80,  70
1787, 530, 342, 341, 321
1788, 509, 405, 404, 384
1789, 496, 372, 351, 352
1790, 486,  45, 201, 200
1791, 486,  44, 198, 181
1792, 442, 495, 394, 373
1793, 515, 135, 558, 134
1794, 452, 161, 504,  22
1795, 436, 561, 535,  81
1796, 432,  73,  82,  63
1797, 465, 526,  74, 469
1798, 509, 134, 558, 144
1799, 480, 239, 481, 260
1800, 480,  92,  82,  73
1801, 519,  84,  74,  75
1802, 549, 515, 125, 360
1803, 469, 215, 235, 214
1804, 515, 563, 124, 134
1805, 476, 336, 335, 315
1806, 446, 513, 447, 154
1807, 479,  93, 102,  83
1808, 531,  95, 104,  94
1809, 450, 424,  27,  28
1810, 504, 162,  22, 161
1811, 105, 297, 473, 474
1812, 511, 427,  24,  25
1813, 457,  76,  66,  67
1814, 529, 365, 364, 344
1815, 446,  15, 166, 164
1816, 501,  98, 107,  97
1817, 154, 153, 163, 513
1818, 509, 552, 143, 406
1819, 457, 211, 461, 232
1820, 459,  77,  68,  78
1821, 206,  50, 187,  51
1822, 490,  85,  76,  86
1823, 513,  26,  25, 163
1824, 473, 115, 114, 105
1825, 498,  76,  77,  86
1826, 153, 447, 513, 154
1827, 546,  78,  87,  77
1828, 547,  98,  97,  88
1829, 548, 248, 268, 247
1830, 439,  78,  69,  79
1831, 487, 433, 220, 481
1832, 558, 383, 403, 382
1833, 536, 103,  94, 104
1834, 550,  91,  92, 101
1835, 492, 493, 150, 564
1836, 530, 104, 113, 103
1837, 431,  72,   5,  63
1838, 483, 333, 353, 332
1839, 470, 224, 245, 244
1840, 475, 520, 275, 274
1841, 487, 242, 551, 241
1842, 440, 174, 172,  20
1843, 418,  33, 170, 171
1844, 442, 495, 494, 394
1845, 550, 551, 262, 282
1846, 371, 442, 496, 492
1847, 167,  17,  16, 156
1848,  63, 465, 464, 527
1849, 432, 506, 239, 480
1850, 436, 535, 470,  80
1851, 167,  16, 155, 156
1852, 205, 204, 183,  49
1853, 155, 165, 449, 450
1854,  15, 446, 513, 164
1855, 558, 144, 134, 135
1856, 562, 449, 145, 146
1857, 446, 155,  15, 154
1858, 431, 432,  63, 506
1859, 566, 494, 148, 495
1860, 461, 233, 232, 212
1861, 511, 180, 153,  14
1862, 163,  14, 153, 154
1863, 163,  14, 154,  15
1864, 526,  83,  74,  84
1865, 460, 213, 212, 191
1866, 414,  37, 173,  38
1867, 474, 317, 296, 297
1868, 518,  94,  84,  85
1869, 442, 372, 373, 393
1870, 463, 519, 235, 469
1871, 484, 496, 139, 129
1872, 471, 396, 417, 416
1873, 523, 110, 100, 101
1874, 458, 211, 210,  55
1875, 492, 139, 140, 149
1876, 452,  41, 410, 176
1877, 442, 493, 492, 392
1878, 505, 552, 142, 387
1879, 472, 207, 206, 187
1880, 452, 177,  22, 504
1881, 492, 564, 370, 391
1882, 543, 399, 398, 378
1883, 440, 158, 159,  19
1884, 471, 157, 147, 148
1885, 456, 457, 209, 210
1886, 541,  79,  88,  78
1887, 208,  52, 186, 197
1888, 546,  87,  78,  88
1889, 434, 488, 436,  70
1890, 439, 226, 225, 205
1891, 478, 349, 370, 369
1892, 540, 267, 266, 246
1893, 535,  90,  81,  91
1894, 263, 550, 262, 567
1895, 441, 160,  21,  20
1896, 541,  88,  79,  89
1897, 548,  88,  89,  98
1898, 472, 439, 205, 206
1899, 478, 348, 349, 369
1900, 470, 540, 244, 245
1901, 484, 373, 496, 352
1902, 171,  19,  18, 158
1903, 542, 355, 517, 356
1904, 561,  91, 535,  81
1905, 463, 489, 461, 233
1906, 457, 210, 458, 211
1907, 494, 495, 149, 148
1908, 494, 158, 149, 159
1909, 483, 335, 356, 355
1910, 436, 535, 561, 222
1911, 479, 480,  83,  92
1912, 550, 101,  92, 102
1913, 523, 559, 555, 100
1914, 476, 117, 497, 116
1915, 566, 471, 494, 395
1916, 435,  79, 502, 439
1917, 149, 139, 495, 442
1918, 446, 155, 450,  16
1919, 489, 233, 234, 254
1920, 546,  78, 541,  88
1921, 442, 372, 393, 392
1922, 446,  16,  15, 155
1923, 479, 260, 281, 280
1924, 482, 102,  93, 112
1925, 466, 156, 157,  17
1926, 516,  97, 106,  96
1927, 450, 422, 423, 165
1928, 545,  94,  93,  84
1929, 536, 299, 531, 278
1930, 547, 272, 271, 251
1931, 448, 404, 425, 424
1932, 448, 145, 155, 154
1933, 565, 387, 505, 142
1934, 518,  94,  85,  95
1935, 565, 505, 556, 141
1936, 530, 113, 104, 114
1937, 474, 106, 115, 105
1938, 547,  88,  97,  87
1939, 463,  65,  75,  74
1940, 520,  95,  86,  96
1941, 460,  56, 189, 191
1942, 532,  87,  96,  86
1943, 556, 368, 389, 388
1944, 447, 144, 153, 143
1945, 556, 368, 533, 369
1946, 532,  96,  87,  97
1947, 546, 251, 250, 230
1948, 493, 412, 391, 392
1949, 564, 141, 151, 150
1950, 459, 228, 207, 208
1951, 435, 439,  69,  79
1952, 534, 477, 507, 130
1953, 444, 112, 121, 111
1954, 463,  65,  74,  64
1955, 463,  65, 461,  75
1956, 451, 505, 388, 409
1957, 539, 559, 266, 287
1958, 538, 108,  98,  99
1959, 522, 306, 327, 326
1960, 556, 564, 390, 369
1961, 470,  80,  89,  79
1962, 548,  98,  89,  99
1963, 505, 512, 162, 152
1964, 539, 288, 560, 287
1965, 463, 214, 469, 235
1966, 562, 145, 135, 136
1967, 451, 410, 390, 411
1968, 512, 407, 408, 428
1969, 453, 455, 567, 283
1970, 492, 391, 371, 392
1971, 432, 480,  82,  73
1972, 544, 396, 375, 376
1973, 482,  93, 103, 112
1974, 483, 485, 355, 127
1975, 536,  94, 103,  93
1976, 512, 427, 428, 180
1977, 171, 170, 157,  18
1978, 474, 316, 295, 296
1979, 518, 531,  95, 276
1980, 529, 113, 132, 122
1981, 505, 152, 161, 151
1982, 463, 489, 519,  75
1983, 474, 296, 475, 297
1984, 473, 320, 340, 319
1985, 453, 444, 111, 112
1986, 448, 449, 145, 402
1987, 549, 515, 124, 125
1988, 450, 166,  28,  27
1989, 475, 276, 296, 275
1990, 509, 558, 134, 383
1991, 449, 156, 155, 146
1992, 505, 552, 512, 152
1993, 473, 104, 105, 114
1994, 511, 512, 180, 427
1995, 512, 429, 428, 408
1996, 449, 146, 155, 145
1997, 474, 316, 315, 295
1998, 563, 133, 123, 124
1999, 394, 442, 414, 494
2000, 512, 152, 143, 162
2001, 552, 553, 386, 385
2002, 468, 398, 399, 419
2003, 497, 437, 337, 116
2004, 431, 506,  63, 527
2005, 549, 114, 115, 124
2006, 552, 512, 143, 406
2007, 500, 108, 109, 118
2008, 483, 499, 118, 117
2009, 503, 178, 179,   2
2010, 422, 421,  30, 167
2011, 439, 206, 226, 205
2012, 539, 267, 287, 266
2013, 512, 162, 143, 153
2014, 435, 439, 225, 204
2015, 509, 406, 447, 405
2016, 502, 247, 246, 226
2017,   3, 429, 178, 179
2018, 478, 564, 507, 140
2019, 478, 140, 131, 141
2020, 540, 265, 244, 245
2021,  23, 428, 180, 178
2022, 505, 162, 504, 161
2023, 554, 561, 243, 264
2024, 507, 129, 130, 139
2025, 440, 159,  20,  19
2026, 521, 305, 326, 325
2027, 453, 567, 284, 283
2028, 496, 129, 507, 139
2029, 487, 433, 481,  82
2030, 517, 127, 356, 355
2031, 534, 129, 119, 120
2032, 497, 337, 358, 357
2033, 528, 122, 112, 103
2034, 522, 525, 327, 306
2035, 530, 104, 473, 114
2036, 474, 437, 337, 338
2037, 308, 534, 477, 329
2038, 509, 143, 134, 144
*Nset, nset=Set-1, generate
   1,  567,    1
*Elset, elset=Set-1, generate
    1,  2038,     1
** Section: Section-1
*Solid Section, elset=Set-1, material=Material-1
,
*End Instance
**  
*Instance, name=Part-2-1, part=Part-2
*Node
      1,           0.,           1.,           0.
      2,           0.,           1.,           7.
      3, -0.587785244,  0.809017003,           0.
      4,  -0.95105654,  0.309017003,           0.
      5,  -0.95105654, -0.309017003,           0.
      6, -0.587785244, -0.809017003,           0.
      7,           0.,          -1.,           0.
      8,  0.587785244, -0.809017003,           0.
      9,   0.95105654, -0.309017003,           0.
     10,   0.95105654,  0.309017003,           0.
     11,  0.587785244,  0.809017003,           0.
     12,  0.587785244,  0.809017003,           7.
     13,   0.95105654,  0.309017003,           7.
     14,   0.95105654, -0.309017003,           7.
     15,  0.587785244, -0.809017003,           7.
     16,           0.,          -1.,           7.
     17, -0.587785244, -0.809017003,           7.
     18,  -0.95105654, -0.309017003,           7.
     19,  -0.95105654,  0.309017003,           7.
     20, -0.587785244,  0.809017003,           7.
     21, 0.00314752478,  0.372958571,           0.
     22,  0.516169727, -0.000389713648,           0.
     23, 0.00151131151, -0.374379456,           0.
     24, -0.512170792, -0.000236816355,           0.
     25,  0.587785244,  0.809017003,   6.36363649
     26,   0.95105654,  0.309017003,   6.36363649
     27,   0.95105654, -0.309017003,   6.36363649
     28,  0.587785244, -0.809017003,   6.36363649
     29,           0.,          -1.,   6.36363649
     30, -0.587785244, -0.809017003,   6.36363649
     31,  -0.95105654, -0.309017003,   6.36363649
     32,  -0.95105654,  0.309017003,   6.36363649
     33, -0.587785244,  0.809017003,   6.36363649
     34,           0.,           1.,   6.36363649
     35,  0.587785244,  0.809017003,   5.72727251
     36,   0.95105654,  0.309017003,   5.72727251
     37,   0.95105654, -0.309017003,   5.72727251
     38,  0.587785244, -0.809017003,   5.72727251
     39,           0.,          -1.,   5.72727251
     40, -0.587785244, -0.809017003,   5.72727251
     41,  -0.95105654, -0.309017003,   5.72727251
     42,  -0.95105654,  0.309017003,   5.72727251
     43, -0.587785244,  0.809017003,   5.72727251
     44,           0.,           1.,   5.72727251
     45,  0.587785244,  0.809017003,     5.090909
     46,   0.95105654,  0.309017003,     5.090909
     47,   0.95105654, -0.309017003,     5.090909
     48,  0.587785244, -0.809017003,     5.090909
     49,           0.,          -1.,     5.090909
     50, -0.587785244, -0.809017003,     5.090909
     51,  -0.95105654, -0.309017003,     5.090909
     52,  -0.95105654,  0.309017003,     5.090909
     53, -0.587785244,  0.809017003,     5.090909
     54,           0.,           1.,     5.090909
     55,  0.587785244,  0.809017003,    4.4545455
     56,   0.95105654,  0.309017003,    4.4545455
     57,   0.95105654, -0.309017003,    4.4545455
     58,  0.587785244, -0.809017003,    4.4545455
     59,           0.,          -1.,    4.4545455
     60, -0.587785244, -0.809017003,    4.4545455
     61,  -0.95105654, -0.309017003,    4.4545455
     62,  -0.95105654,  0.309017003,    4.4545455
     63, -0.587785244,  0.809017003,    4.4545455
     64,           0.,           1.,    4.4545455
     65,  0.587785244,  0.809017003,   3.81818175
     66,   0.95105654,  0.309017003,   3.81818175
     67,   0.95105654, -0.309017003,   3.81818175
     68,  0.587785244, -0.809017003,   3.81818175
     69,           0.,          -1.,   3.81818175
     70, -0.587785244, -0.809017003,   3.81818175
     71,  -0.95105654, -0.309017003,   3.81818175
     72,  -0.95105654,  0.309017003,   3.81818175
     73, -0.587785244,  0.809017003,   3.81818175
     74,           0.,           1.,   3.81818175
     75,  0.587785244,  0.809017003,   3.18181825
     76,   0.95105654,  0.309017003,   3.18181825
     77,   0.95105654, -0.309017003,   3.18181825
     78,  0.587785244, -0.809017003,   3.18181825
     79,           0.,          -1.,   3.18181825
     80, -0.587785244, -0.809017003,   3.18181825
     81,  -0.95105654, -0.309017003,   3.18181825
     82,  -0.95105654,  0.309017003,   3.18181825
     83, -0.587785244,  0.809017003,   3.18181825
     84,           0.,           1.,   3.18181825
     85,  0.587785244,  0.809017003,    2.5454545
     86,   0.95105654,  0.309017003,    2.5454545
     87,   0.95105654, -0.309017003,    2.5454545
     88,  0.587785244, -0.809017003,    2.5454545
     89,           0.,          -1.,    2.5454545
     90, -0.587785244, -0.809017003,    2.5454545
     91,  -0.95105654, -0.309017003,    2.5454545
     92,  -0.95105654,  0.309017003,    2.5454545
     93, -0.587785244,  0.809017003,    2.5454545
     94,           0.,           1.,    2.5454545
     95,  0.587785244,  0.809017003,   1.90909088
     96,   0.95105654,  0.309017003,   1.90909088
     97,   0.95105654, -0.309017003,   1.90909088
     98,  0.587785244, -0.809017003,   1.90909088
     99,           0.,          -1.,   1.90909088
    100, -0.587785244, -0.809017003,   1.90909088
    101,  -0.95105654, -0.309017003,   1.90909088
    102,  -0.95105654,  0.309017003,   1.90909088
    103, -0.587785244,  0.809017003,   1.90909088
    104,           0.,           1.,   1.90909088
    105,  0.587785244,  0.809017003,   1.27272725
    106,   0.95105654,  0.309017003,   1.27272725
    107,   0.95105654, -0.309017003,   1.27272725
    108,  0.587785244, -0.809017003,   1.27272725
    109,           0.,          -1.,   1.27272725
    110, -0.587785244, -0.809017003,   1.27272725
    111,  -0.95105654, -0.309017003,   1.27272725
    112,  -0.95105654,  0.309017003,   1.27272725
    113, -0.587785244,  0.809017003,   1.27272725
    114,           0.,           1.,   1.27272725
    115,  0.587785244,  0.809017003,  0.636363626
    116,   0.95105654,  0.309017003,  0.636363626
    117,   0.95105654, -0.309017003,  0.636363626
    118,  0.587785244, -0.809017003,  0.636363626
    119,           0.,          -1.,  0.636363626
    120, -0.587785244, -0.809017003,  0.636363626
    121,  -0.95105654, -0.309017003,  0.636363626
    122,  -0.95105654,  0.309017003,  0.636363626
    123, -0.587785244,  0.809017003,  0.636363626
    124,           0.,           1.,  0.636363626
    125, -0.00314752478,  0.372958571,           7.
    126, -0.516169727, -0.000389713648,           7.
    127, -0.00151131151, -0.374379456,           7.
    128,  0.512170792, -0.000236816355,           7.
    129,  -0.45033443, 0.0774607062,   6.07918501
    130,   0.26460281,  0.419870079,   1.67556119
    131,  0.333396673,  0.191401482,    1.0623306
    132,  0.502589583, -0.0973462239,   1.53658557
    133, -0.0706215873, 0.0162225235,   1.43333006
    134,  0.484852403, -0.0458248816,    2.1210506
    135, -0.0529043339, -0.501365364,   1.69696987
    136,   -0.2354137,  0.437851161,   1.29624736
    137,  0.135203063, -0.451211482,  0.901515007
    138,   0.08493568,  0.343540072,   2.17424226
    139,  -0.45958215, -0.0172760598,   1.59632158
    140, -0.0213979799, -0.418561578,   2.38182044
    141, -0.470871747, -0.180231139,   2.21724296
    142, -0.474266052, -0.152790397,  0.954545736
    143, -0.339031935,  0.371477425,   2.68667769
    144, -0.325140864,  0.395301729,   2.12333751
    145, -0.595515072, -0.334685206,   6.59691715
    146, -0.0207319818, -0.506828129,   6.09900665
    147,  0.146436363, -0.191128343,   6.55970097
    148, -0.446491838,  0.316695273,    3.0747788
    149, -0.362416387, -0.0405097492,   2.94252753
    150,  0.126341119,  0.492823094,  0.648234189
    151,  0.196109578, -0.0171581134,  0.420069754
    152, -0.414033949,  0.183593065,   0.39337793
    153, -0.144078761,   0.49409923,    6.4980197
    154,  0.334236473,  0.373778701,   2.96531558
    155,  0.325573176,  0.369036913,   6.14712858
    156,   0.36478284,  0.423307389,   6.56615686
    157,  0.397881478, -0.230273277,   2.92524981
    158, -0.432837546, -0.261352628,    5.4572978
    159,  0.178358182, -0.483168334,   3.42844272
    160,  0.420831382,  0.126047581,    3.4472158
    161, -0.451202631, -0.316506356,   4.79773092
    162, -0.289973289, -0.207262173,   3.57205558
    163, -0.250089616, -0.457341611,   2.90168619
    164,  0.243994087, -0.433518171,   4.24242449
    165,  0.495229036, 0.0625054464,   4.89731073
    166, -0.338057756,  0.269483835,   4.75458193
    167,   0.17350021,  0.400299817,   5.27030993
    168,  0.467464596,   0.21199511,   4.12723351
    169, -0.405103266,  0.284277707,   5.42385387
    170, -0.623181939, 0.00117458764,   4.18360567
    171, 0.0125555396, -0.356244147,   4.99261045
    172, -0.305355102, -0.396921068,   4.16287899
    173, 0.0849436596, -0.444410503,   5.48806047
    174,  0.461204559, -0.160495058,   6.16426802
    175, -0.349529624, -0.422812104,  0.324174821
    176,   0.37853381, -0.321179003,  0.359419972
    177, -0.135644704,  0.524449646,   3.75397873
    178, -0.222401902,  0.402823716,   4.16841078
*Element, type=C3D4
  1, 129,  42,  41,  32
  2, 130, 131, 106, 132
  3, 130,  96, 132, 106
  4, 133, 134, 135, 132
  5, 130, 136, 104, 114
  6, 130, 133, 136, 131
  7, 130, 136, 114, 105
  8,  15,  28, 127, 128
  9, 133, 137, 131, 132
 10, 136, 138, 139, 133
 11, 140,  98,  88,  89
 12, 141, 135, 139, 138
 13, 133, 131, 137, 142
 14, 133, 136, 142, 139
 15, 143, 144, 138, 141
 16, 143, 138, 144,  94
 17, 145, 146, 147,  29
 18,  92, 148, 149, 143
 19, 143,  84,  83, 148
 20, 131, 150, 115, 116
 21, 131, 150, 105, 115
 22, 145,  19, 126,  32
 23, 114, 105, 136, 150
 24, 102, 144, 139, 103
 25, 130, 133, 131, 132
 26, 150, 151,  21,  22
 27, 150,  21,   1,  11
 28, 150, 124,   1,   3
 29, 131, 136, 152, 142
 30, 153,  33,  34,  43
 31, 131, 150, 152, 136
 32, 124, 150, 114, 123
 33, 150,   3, 152, 123
 34, 130, 132,  96, 134
 35, 130, 138, 134,  95
 36, 132, 134,  97,  96
 37, 131, 132, 107, 106
 38, 133, 136, 131, 142
 39, 134, 130, 133, 138
 40, 134, 154, 138, 140
 41,  86,  95,  96, 134
 42, 131, 151, 150, 116
 43, 155, 153, 147, 156
 44, 134, 140,  88, 157
 45,  99, 140,  98, 135
 46, 158,  40,  41,  50
 47, 134,  88, 140,  98
 48, 159, 160,  77, 157
 49, 161,  61,  60,  51
 50, 157, 162, 163, 159
 51,  32, 126, 153,  20
 52,  80, 162,  79, 163
 53, 159, 162,  69, 164
 54, 159,  78, 163, 157
 55, 159, 162,  79,  69
 56, 165, 166, 167,  55
 57, 160, 168, 164,  67
 58, 159, 160, 157, 162
 59, 161, 166,  52, 169
 60, 161, 166, 170,  62
 61, 161, 158,  50, 171
 62,  50, 171,  59, 161
 63, 163,  89,  88,  79
 64, 161, 166, 171, 164
 65, 161, 166, 172, 170
 66, 161, 171,  59, 164
 67, 156, 128,  12, 125
 68, 173, 174, 167, 129
 69, 155, 174, 167,  36
 70, 155, 174,  26, 156
 71, 155,  26, 174,  36
 72,  45, 167, 165,  46
 73, 165, 167,  45,  55
 74,  37,  47,  38, 173
 75,  46, 167, 165,  37
 76, 165, 164,  57,  58
 77, 165,  57, 168,  56
 78, 136, 142, 122, 152
 79, 136, 122, 142, 112
 80, 156,  26,  25,  13
 81, 132, 130, 133, 134
 82, 130, 104, 138,  95
 83, 139, 144, 136, 103
 84, 138, 139, 144, 136
 85, 170,  71,  61,  62
 86, 112, 136, 103, 139
 87, 155, 129, 153,  44
 88, 129,  30, 146, 145
 89,  21,  23, 151,  24
 90, 129, 126, 145, 147
 91, 129, 173, 174, 146
 92, 174, 167, 129, 155
 93, 173, 167, 169, 129
 94, 129,  33, 153,  43
 95, 155, 129,  44, 167
 96,  32, 126, 145, 129
 97, 125, 153,   2, 156
 98, 153,   2,  34,  33
 99, 147, 153, 129, 126
100, 153, 125,   2,  20
101, 129, 126, 153,  32
102, 129, 169,  42,  43
103, 175,  23,   7,   6
104, 122, 152, 121,  24
105, 152, 121,  24, 175
106, 135, 100, 110, 109
107, 142, 175, 121, 152
108, 175,   5,   6, 121
109, 175,  24,   5, 121
110, 147, 126, 127, 125
111, 135, 139, 138, 133
112, 141, 140,  90, 100
113, 142, 135, 110, 137
114, 139, 141, 100, 135
115, 140,  98, 135, 134
116, 176, 117, 151, 137
117, 117, 151,  22, 176
118, 160, 154,  76, 157
119, 176, 118,   9, 117
120, 176,  23, 151,  22
121, 176, 118,   8,   9
122, 174, 146,  38,  28
123, 174, 167,  36,  37
124,  26, 174, 128, 156
125, 142, 111, 120, 110
126, 174, 146, 173,  38
127, 156, 125,  12,   2
128, 153, 147, 156, 125
129, 156,  13, 128,  26
130, 156,  12, 128,  13
131,  80, 163,  81, 162
132, 163,  81, 162, 149
133, 149, 163,  81,  91
134, 149,  92,  91,  82
135, 160, 149, 157, 162
136, 148, 160, 149, 154
137, 160, 177, 148, 162
138, 131, 151, 117, 137
139, 134, 154, 140, 157
140, 136, 123, 122, 113
141, 160,  66, 168,  67
142, 143, 154, 138,  94
143, 154,  76, 157,  86
144, 160, 177,  75, 154
145, 160,  76, 154,  75
146, 150, 115, 116,  11
147, 176, 137, 119, 118
148, 105, 136, 150, 131
149, 176, 151,  23, 137
150, 151,  24, 152,  21
151, 150, 151,  22, 116
152, 176, 137, 118, 117
153, 131, 137, 117, 107
154, 145,  16, 127,  17
155, 145, 127,  16,  29
156, 129, 146, 147, 145
157, 165,  58,  57,  48
158, 153,  32,  33, 129
159,  18,  19, 126, 145
160, 145, 126,  18,  17
161, 161, 166, 164, 172
162,  44, 169,  53, 167
163, 161,  60,  50,  51
164, 171, 164,  58,  59
165, 129, 145,  31,  30
166, 129, 158,  41, 169
167, 147,  29, 127, 145
168,  28, 128,  15,  27
169,  28,  29, 127, 147
170, 142, 175, 152, 137
171, 129, 146, 174, 147
172, 173, 171,  49,  50
173, 128, 174,  28, 147
174, 175, 120,   7, 119
175, 143, 154, 140, 138
176, 156, 147, 128, 125
177, 129, 169,  43,  44
178, 174, 167,  37, 173
179, 155, 153, 129, 147
180, 146, 145,  30,  29
181,  29, 146, 147,  28
182, 138, 134, 135, 133
183, 175, 137, 151, 152
184, 142, 152, 121, 122
185,  22, 116,  11, 150
186, 142, 120, 175, 137
187, 136, 152, 122, 123
188, 150, 152, 136, 123
189, 150,  21, 152,   3
190, 152,   4, 123,   3
191, 149, 163, 140, 157
192, 141,  91, 149,  92
193, 162,  79, 163, 159
194, 149, 157, 162, 163
195, 149,  91,  81,  82
196, 144, 104, 138, 136
197, 132,  98, 134, 135
198, 175,  23, 151, 137
199, 147, 127, 128, 125
200, 175, 119, 137, 120
201, 155,  25,  26,  35
202, 142, 175, 120, 121
203, 133, 139, 142, 135
204, 138, 141, 135, 140
205, 152, 137, 131, 142
206, 142, 137, 110, 120
207, 104, 138, 136, 130
208, 135, 137, 109, 110
209, 165, 164, 168,  57
210, 162,  81,  71,  72
211, 162, 160, 149, 148
212, 162,  71, 170,  72
213, 154, 157, 149, 140
214, 163,  88, 140, 157
215, 131, 117, 151, 116
216, 134, 138, 154,  86
217, 132,  97, 134,  98
218, 141, 149,  91, 163
219, 143, 141, 140, 149
220, 134,  95,  96, 130
221, 132, 135, 137, 108
222, 148,  84,  83, 177
223, 134,  87, 157,  88
224, 159,  68, 164,  69
225, 165,  56,  46,  47
226, 178, 166, 172, 164
227, 165, 168,  55,  56
228,  68,  67, 159, 164
229, 178, 168,  55, 166
230, 168,  56,  65,  55
231, 168,  57,  67,  66
232, 143, 141, 138, 140
233, 160,  67,  76,  66
234, 165, 173, 171,  48
235, 151, 152, 137, 131
236, 134, 138, 135, 140
237, 135,  99, 109, 108
238, 136, 113, 103, 104
239, 157,  86,  76,  77
240, 135,  98,  99, 108
241, 140,  89,  99,  98
242, 173,  47,  38,  48
243, 162, 172, 170,  71
244, 178, 166,  64,  63
245, 178, 166, 170, 172
246, 170, 172,  61,  71
247, 161,  62, 170,  61
248, 178, 162, 170,  72
249, 162, 172,  70,  69
250, 173, 158,  50,  40
251, 165, 171, 167, 166
252, 145,  17,  29,  16
253, 172,  69,  59,  60
254, 162,  79,  69,  70
255, 102, 143,  92, 141
256, 137, 108, 118, 117
257, 141,  91,  92, 101
258, 176, 118, 119,   8
259, 154,  75,  94,  84
260, 157,  77,  87,  86
261, 133, 142, 137, 135
262, 160, 177, 168,  65
263, 149, 162,  82,  81
264,  82,  92, 148, 149
265, 160, 154, 157, 149
266, 134,  86, 157,  87
267, 162, 168, 178, 164
268, 163,  80,  81,  90
269, 148,  82,  83,  92
270, 169, 173, 158, 171
271, 173, 158, 171,  50
272, 145, 127, 126,  17
273, 143,  84, 154,  94
274, 143,  83,  84,  93
275, 143,  94,  93,  84
276, 139, 141, 101, 100
277, 141, 144, 102, 143
278, 166,  62,  53,  63
279,  84, 154, 148, 143
280, 143, 154, 149, 140
281, 138,  94, 104, 144
282, 140,  90, 100,  99
283, 139, 144, 141, 138
284, 141,  92, 102, 101
285, 164,  59,  69,  68
286, 138,  94,  85, 104
287, 103, 144, 136, 104
288, 141, 135, 140, 100
289, 103, 144, 104,  94
290,  93, 143,  92, 102
291, 166,  53,  62,  52
292, 161,  50,  60,  59
293, 143, 141, 149,  92
294,  83,  92, 143, 148
295, 135,  99, 140, 100
296, 177,  84,  74,  65
297, 148, 149, 162,  82
298, 161,  61, 172,  60
299, 178, 170,  62,  72
300, 178, 170, 166,  62
301, 177, 168,  55, 178
302, 178, 162, 164, 172
303, 165,  46,  55,  45
304, 177, 168, 178, 162
305, 168,  57, 164,  67
306, 103, 144,  94,  93
307,   4,  24, 122,   5
308, 143,  94, 144,  93
309, 168, 160, 162, 177
310, 165, 168, 164, 166
311, 102, 139, 144, 141
312, 142, 121, 111, 112
313, 164,  68,  58,  59
314, 160,  66,  75,  65
315, 160,  65, 168,  66
316, 162, 148,  82, 177
317, 177,  73,  72,  63
318, 170,  71,  62,  72
319,  37,  36,  46, 167
320, 161, 169, 171, 166
321, 177,  84,  83,  74
322, 177, 178,  64,  63
323, 174, 128, 156, 147
324, 167,  35,  36,  45
325, 177, 178,  55,  64
326, 173,  40,  49,  39
327, 165, 166, 164, 171
328,  82, 177,  72, 162
329, 177,  83,  73,  74
330, 161, 164,  59, 172
331, 145, 147, 126, 127
332, 141, 149, 163, 140
333, 177,  65,  75,  84
334, 177, 154,  84,  75
335,   8,  23, 119, 176
336, 175,   6,   5,  24
337, 155, 156,  25,  34
338, 166, 169,  53,  52
339, 173, 171,  48,  49
340, 165, 171, 164,  58
341, 131, 107, 132, 137
342, 130, 136, 133, 138
343, 173,  38,  39,  48
344,   4,  24, 152, 122
345, 139, 142, 135, 110
346, 175, 119,   7,  23
347, 137, 108, 117, 107
348, 176, 117,   9,  22
349, 175,  23, 137, 119
350, 151,  21,  22,  23
351, 150, 114, 123, 136
352,  10,  22, 116,  11
353, 150,  11,  22,  21
354, 169,  52,  51,  42
355, 117, 116,  10,  22
356, 133, 132, 135, 137
357, 150, 115,   1, 124
358, 150, 115, 124, 105
359, 155, 174, 156, 147
360, 158, 169,  51,  41
361, 122,   4, 123, 152
362, 116, 117, 151,  22
363, 150, 151, 152,  21
364,   3,  24, 152,   4
365, 166,  63,  54,  64
366, 176, 137,  23, 119
367, 137, 110, 119, 109
368, 139, 110, 101, 111
369, 131, 116, 107, 117
370, 146,  39, 173,  38
371, 137, 119, 110, 120
372, 131, 116, 115, 106
373, 154,  85,  94,  75
374, 130, 106, 105,  96
375, 132, 108, 107,  98
376, 161,  61, 170, 172
377, 167,  53, 166, 169
378, 150,   3,   1,  21
379, 131, 106, 107, 116
380, 113, 112, 136, 103
381, 152,   3,  21,  24
382,  65, 177, 168,  55
383, 144,  93, 103, 102
384,  24,  23, 151, 175
385, 132, 107,  97,  98
386, 139, 103, 112, 102
387, 142, 121, 120, 111
388, 163,  89, 140,  88
389, 130, 131, 136, 105
390, 142, 121, 112, 122
391, 163,  90, 140,  89
392, 155,  35, 167,  44
393, 141, 163,  90, 140
394, 175, 120,   6,   7
395, 139, 142, 110, 111
396, 175,   6, 120, 121
397,  95, 138, 134,  86
398, 143, 148, 149, 154
399,  19, 126,  32,  20
400, 130, 106, 131, 105
401, 131, 115, 105, 106
402, 138, 104,  85,  95
403, 139, 135, 100, 110
404,  93,  83,  92, 143
405, 150, 115,  11,   1
406, 177,  65,  74,  55
407, 178,  72, 177, 162
408, 161, 169,  52,  51
409, 132,  98, 135, 108
410, 139, 141, 102, 101
411, 141, 100,  90,  91
412, 173, 129,  40, 146
413, 132,  97, 107, 106
414, 160, 177,  65,  75
415, 140,  90,  99,  89
416, 143, 144, 102,  93
417, 134,  96,  86,  87
418, 138,  95,  85,  86
419, 136, 114, 123, 113
420, 154,  86,  85,  76
421, 139, 111, 101, 102
422, 163,  81,  91,  90
423, 163, 157,  78,  88
424, 150, 124, 114, 105
425, 162,  69, 164, 172
426, 163,  80,  90,  89
427, 178, 166,  55,  64
428,  67, 159, 164, 160
429, 160, 157,  76,  77
430,  43,  44, 169,  53
431, 164, 160, 162, 168
432, 162,  70,  80,  79
433, 154, 138,  94,  85
434, 159,  68,  69,  78
435, 130,  95, 105, 114
436, 159, 160, 162, 164
437, 176,  22,   9,   8
438, 132, 106,  96,  97
439, 154, 138,  85,  86
440, 154, 177, 148, 160
441, 177, 178,  63,  72
442, 178, 170, 162, 172
443, 136, 113, 104, 114
444,  73, 177,  72,  82
445, 163,  88,  78,  79
446, 162,  80,  71,  81
447, 162,  70, 172,  71
448, 129, 173, 158, 169
449, 172,  69,  60,  70
450, 173,  48,  39,  49
451, 177, 154, 148,  84
452, 172,  60,  61,  70
453, 159,  69,  79,  78
454, 160,  67,  77,  76
455, 177,  64,  73,  63
456, 159, 157,  77,  78
457, 168,  66,  65,  56
458, 141,  90, 163,  91
459, 177,  64,  74,  73
460, 157,  88,  87,  78
461, 159,  68,  78,  77
462, 129, 167, 169,  44
463, 177,  55,  74,  64
464, 172,  61,  71,  70
465, 162,  70,  71,  80
466,  83, 177,  82, 148
467, 167,  54, 166,  53
468, 134,  87,  97,  96
469, 168,  57,  66,  56
470, 161,  61,  52,  62
471, 165,  47,  57,  56
472, 165,  57,  47,  48
473, 167,  55,  64,  45
474, 165,  46,  56,  55
475, 167, 166,  54,  64
476, 164, 172,  69,  59
477, 171,  59,  58,  49
478, 157,  78,  87,  77
479, 178, 168, 166, 164
480, 178,  72,  62,  63
481,  73,  83, 177,  82
482, 129, 169,  41,  42
483, 166,  63,  53,  54
484, 161, 172,  59,  60
485, 161, 158, 169,  51
486, 129, 153,  44,  43
487, 161,  61,  51,  52
488, 173, 167,  37, 165
489, 155,  44, 153,  34
490, 178, 166,  63,  62
491, 165, 171,  58,  48
492, 167, 166, 171, 169
493, 174, 146,  28, 147
494, 158,  41,  51,  50
495,  49,  50, 171,  59
496,  47, 165, 173,  37
497, 171,  48,  49,  58
498, 167,  36,  46,  45
499,  37, 173,  38, 174
500, 165,  37,  47,  46
501, 167,  45,  54,  35
502, 158, 173, 129,  40
503, 171, 167, 169, 173
504, 132, 108, 137, 107
505, 167,  35,  54,  44
506, 160,  76,  75,  66
507, 129,  40, 146,  30
508, 173,  50,  49,  40
509, 155,  34, 153, 156
510, 129,  31,  41,  40
511,  27,  26, 174, 128
512, 165,  55, 168, 166
513, 135, 137, 108, 109
514, 146,  39,  30,  40
515, 167,  64,  54,  45
516,  48, 165, 173,  47
517,  27, 174,  28, 128
518, 158, 161, 169, 171
519, 167, 166,  64,  55
520, 129,  43,  42,  33
521,  20,  32,  33, 153
522, 161,  50, 158,  51
523, 153,  20,   2,  33
524, 129,  32,  41,  31
525, 155, 147, 129, 174
526, 169,  51,  41,  42
527, 146, 173,  39,  40
528, 165, 167, 171, 173
529, 128,  14,  15,  27
530, 129,  42,  32,  33
531,  32,  31, 145,  19
532, 145,  18,  31,  30
533, 153,  44,  43,  34
534, 174,  26,  27,  36
535, 155,  36, 167,  35
536, 146,  39,  38,  29
537, 145,  30,  29,  17
538, 145,  17,  18,  30
539, 164,  58,  67,  57
540, 153, 125,  20, 126
541, 146,  29,  30,  39
542, 127,  16,  29,  28
543, 134, 154, 157,  86
544, 129, 158,  40,  41
545, 146,  29,  38,  28
546,  19,  31, 145,  18
547, 155,  36,  35,  26
548, 155,  35,  44,  25
549, 174,  37,  27,  28
550, 153, 126, 147, 125
551, 128,  27,  26,  14
552, 174,  37,  36,  27
553,  28, 127, 128, 147
554, 156,  34,   2,  12
555, 174,  37,  28,  38
556, 153,   2, 156,  34
557, 141, 101, 100,  91
558, 156,  13,  25,  12
559, 155,  34,  25,  44
560, 127,  28,  15,  16
561, 164,  68,  67,  58
562, 129,  30,  31,  40
563, 169,  53,  52,  43
564, 156,  12,  25,  34
565, 128,  13,  14,  26
566, 139, 110, 100, 101
567,  31,  32, 145, 129
568, 167,  54,  53,  44
569, 169,  43,  52,  42
570, 161, 166,  62,  52
571, 154,  75,  76,  85
572, 136, 112, 113, 122
573, 159,  77,  67,  68
574, 135, 100, 109,  99
575, 134,  97,  87,  88
576, 163,  89,  79,  80
577, 137, 118, 108, 109
578,   7,   8,  23, 119
579, 130,  95, 114, 104
580, 175,  24, 152, 151
581, 134,  98,  97,  88
582, 121, 122,  24,   5
583, 162,  72,  82,  81
584, 136, 142, 139, 112
585, 176,  22,   8,  23
586, 139, 112, 111, 102
587, 150, 123, 124,   3
588, 139, 142, 111, 112
589, 159, 160,  67,  77
590,  22, 117,   9,  10
591, 175,  24,  23,   6
592, 137, 109, 119, 118
593, 130, 105,  95,  96
594, 131, 150, 151, 152
595, 159,  79, 163,  78
596, 155, 156,  26,  25
*Nset, nset=Set-1, generate
   1,  178,    1
*Elset, elset=Set-1, generate
   1,  596,    1
** Section: Section-2
*Solid Section, elset=Set-1, material=Material-2
,
*End Instance
**  
*Node
      1,           0.,           0.,           7.
*Nset, nset=RP
 1,
*Nset, nset=m_Set-1, instance=Part-1-1
   2,   3,  14,  15,  16,  17,  18,  19,  20,  21,  22,  23,  24,  25,  26,  27
  28,  29,  30,  31,  32,  33,  34,  35,  36,  37,  38,  39,  40,  41,  42, 163
 164, 165, 166, 167, 168, 169, 170, 171, 172, 173, 174, 175, 176, 177, 178, 179
 180,
*Nset, nset=m_Set-1, instance=Part-2-1
  1,  3,  4,  5,  6,  7,  8,  9, 10, 11, 21, 22, 23, 24
*Nset, nset=m_Set-2, instance=Part-1-1
   1,   4,   5,   6,   7,   8,   9,  10,  11,  12,  13,  43,  44,  45,  46,  47
  48,  49,  50,  51,  52,  53,  54,  55,  56,  57,  58,  59,  60,  61,  62, 181
 182, 183, 184, 185, 186, 187, 188, 189, 190, 191, 192, 193, 194, 195, 196, 197
 198,
*Nset, nset=m_Set-2, instance=Part-2-1
   2,  12,  13,  14,  15,  16,  17,  18,  19,  20, 125, 126, 127, 128
*Surface, type=NODE, name=m_Set-2_CNS_, internal
m_Set-2, 1.
** Constraint: TIE_LOAD
*Coupling, constraint name=TIE_LOAD, ref node=RP, surface=m_Set-2_CNS_
*Kinematic
*End Assembly
** 
** MATERIALS
** 
*Material, name=Material-1
*Elastic
5000., 0.3
*Material, name=Material-2
*Elastic
200., 0.167
** ----------------------------------------------------------------
** 
** STEP: Step-1
** 
*Step, name=Step-1, nlgeom=NO
*Static
1., 1., 1e-05, 1.
** 
** OUTPUT REQUESTS
** 
*Restart, write, frequency=0
** 
** FIELD OUTPUT: F-Output-1
** 
*Output, field, variable=PRESELECT
** 
** HISTORY OUTPUT: H-Output-1
** 
*Output, history, variable=PRESELECT
*End Step
